Hf  O  F  H                             
   1.00000000000000     
    14.6106902099999996    0.0000000000000000    0.0000000000000000
    -6.0999520900000004   13.5497369200000009    0.0000000000000000
     0.0000000000000000    0.0000000000000000   32.4676209000000000
   Hf   O    F    H 
    80   160    34    34
Selective dynamics
Direct
  0.1048163482780637  0.1061689485554993  0.3670806074368045   F   F   F
  0.3732623612619577  0.1389233751263106  0.3650114703045588   F   F   F
  0.3737743268675473  0.4225943611162037  0.3725879111148558   F   F   F
  0.0744046443694870  0.3629124597055267  0.3752116716380627   F   F   F
  0.4129342004055374  0.2772409621071787  0.4538525553315154   F   F   F
  0.1984387749950471  0.3145780215635341  0.4495369052433418   F   F   F
  0.1809177729260796  0.0772327211353740  0.4589466093279384   F   F   F
  0.3999867945161597  0.0425280634895131  0.4631158645196578   F   F   F
  0.2330362736705780  0.4462873388393405  0.5411192918665648   F   F   F
  0.0165350607331476  0.4845897707658224  0.5388003781022306   F   F   F
  0.5009418603962672  0.2506439939056762  0.5456773192149740   F   F   F
  0.2175425423202526  0.2125169762336583  0.5479620080509164   F   F   F
  0.0522669148249793  0.1178918794647186  0.6268494609214510   T   T   T
  0.3352318138889512  0.1575470881420647  0.6247454596328191   T   T   T
  0.3204374672304782  0.4217589376585653  0.6317800288864246   T   T   T
  0.0341421517329969  0.3822377058588624  0.6365129070723190   T   T   T
  0.3655125540010852  0.2938124933895179  0.7163967974860572   T   T   T
  0.1511853598751004  0.3242130425551306  0.7102409887714308   T   T   T
  0.1314921672993044  0.0906867154981979  0.7199685114048381   T   T   T
  0.3610878375369939  0.0528657189732305  0.7176083861832182   T   T   T
  0.1048163482439719  0.6061689492935187  0.3670806074368045   F   F   F
  0.3732623445892003  0.6389233360111604  0.3650114703045588   F   F   F
  0.3737743272097589  0.9225943611162037  0.3725879111148558   F   F   F
  0.0744046077524629  0.8629124597055267  0.3752116716380627   F   F   F
  0.4129341844172032  0.7772409229920285  0.4538525553315154   F   F   F
  0.1984387746528355  0.8145780215635341  0.4495369052433418   F   F   F
  0.1809177725838680  0.5772327211353740  0.4589466093279384   F   F   F
  0.3999867578991356  0.5425280634895131  0.4631158645196578   F   F   F
  0.2330362380461040  0.9462873395773670  0.5411192918665648   F   F   F
  0.0165350603909360  0.9845897707658224  0.5388003781022306   F   F   F
  0.5009418600540485  0.7506439939056762  0.5456773192149740   F   F   F
  0.2175425419780339  0.7125169762336583  0.5479620080509164   F   F   F
  0.0517205547787304  0.6185326104479795  0.6268958334074307   T   T   T
  0.3354415208468026  0.6563426507655273  0.6254889200481060   T   T   T
  0.3208304756719758  0.9203644360929981  0.6311322030099443   T   T   T
  0.0360734841082235  0.8827156421834662  0.6366097151476798   T   T   T
  0.3665303183095462  0.7914292448741345  0.7158133459567484   T   T   T
  0.1580428185182532  0.8351911784380540  0.7117460235622831   T   T   T
  0.1282525044793753  0.5987729721907508  0.7180736512951493   T   T   T
  0.3701379053743029  0.5529524163594355  0.7220411702032238   T   T   T
  0.6048163664154629  0.1061689485554993  0.3670806074368045   F   F   F
  0.8732623793993639  0.1389233751263106  0.3650114703045588   F   F   F
  0.8737743087301411  0.4225943611162037  0.3725879111148558   F   F   F
  0.5744046262320808  0.3629124597055267  0.3752116716380627   F   F   F
  0.9129342185429365  0.2772409621071787  0.4538525553315154   F   F   F
  0.6984387568576409  0.3145780215635341  0.4495369052433418   F   F   F
  0.6809177910634858  0.0772327211353740  0.4589466093279384   F   F   F
  0.8999867763787535  0.0425280634895131  0.4631158645196578   F   F   F
  0.7330362555331718  0.4462873388393405  0.5411192918665648   F   F   F
  0.5165350788705538  0.4845897707658224  0.5388003781022306   F   F   F
  0.0009418785336663  0.2506439939056762  0.5456773192149740   F   F   F
  0.7175425241828464  0.2125169762336583  0.5479620080509164   F   F   F
  0.5552361626314404  0.1204087675716822  0.6285701434093082   T   T   T
  0.8347847131133032  0.1559942826487891  0.6245131040278047   T   T   T
  0.8169548479523242  0.4185600837698590  0.6331674977312565   T   T   T
  0.5369615237663724  0.3828106733895151  0.6372624075439726   T   T   T
  0.8634843542341342  0.2843424512501591  0.7174608025488036   T   T   T
  0.6540073472323732  0.3287395798126675  0.7151123291873192   T   T   T
  0.6332903912185603  0.0912519509843172  0.7215300373745697   T   T   T
  0.8580300532727825  0.0530501182705251  0.7187775770518401   T   T   T
  0.6048163663813710  0.6061689492935187  0.3670806074368045   F   F   F
  0.8732623627266065  0.6389233360111604  0.3650114703045588   F   F   F
  0.8737743090723527  0.9225943611162037  0.3725879111148558   F   F   F
  0.5744046258898692  0.8629124597055267  0.3752116716380627   F   F   F
  0.9129341662797970  0.7772409229920285  0.4538525553315154   F   F   F
  0.6984387565154293  0.8145780215635341  0.4495369052433418   F   F   F
  0.6809177907212671  0.5772327211353740  0.4589466093279384   F   F   F
  0.8999867760365419  0.5425280634895131  0.4631158645196578   F   F   F
  0.7330362561835102  0.9462873395773670  0.5411192918665648   F   F   F
  0.5165350422535298  0.9845897707658224  0.5388003781022306   F   F   F
  0.0009418419166423  0.7506439939056762  0.5456773192149740   F   F   F
  0.7175425238406277  0.7125169762336583  0.5479620080509164   F   F   F
  0.5547462245366610  0.6203530386118513  0.6283344456558726   T   T   T
  0.8345606775627467  0.6551950999577862  0.6247761224792850   T   T   T
  0.8175278849090230  0.9186340490894119  0.6325073409790298   T   T   T
  0.5374474320678764  0.8827167002647812  0.6373412938391608   T   T   T
  0.8669891528588014  0.7887786728960644  0.7166754539277541   T   T   T
  0.6572685999566663  0.8304999313025169  0.7148236233601132   T   T   T
  0.6421272895828539  0.5946937555141483  0.7194175909720376   T   T   T
  0.8557844003430353  0.5502023938155034  0.7216686336373299   T   T   T
  0.1288949438227718  0.0023484482531160  0.4055195577942712   F   F   F
  0.2171202666773340  0.3655754167956218  0.3861183836848383   F   F   F
  0.2422423258657034  0.1476133695295374  0.3459273718759022   F   F   F
  0.4156474651992070  0.2981851794507051  0.3852004440830470   F   F   F
  0.4483239664366039  0.0539867416112187  0.4013417443530614   F   F   F
  0.0299853079393912  0.2126836445618636  0.3518312443090039   F   F   F
  0.0187047650824397  0.4596688007873126  0.3441004418035476   F   F   F
  0.4407067360639800  0.1746064507354319  0.4921106331816247   F   F   F
  0.0377163536368030  0.0445207962015530  0.4784636998764498   F   F   F
  0.1535412084935999  0.1806685489506918  0.4213457166182479   F   F   F
  0.0591853102326070  0.3140539111662690  0.4348011568349932   F   F   F
  0.2394803091811184  0.4691793816761418  0.4727388595325124   F   F   F
  0.2650519433922724  0.2243375790944881  0.4843499474579644   F   F   F
  0.3566567922348511  0.3873940024069498  0.4403535575654089   F   F   F
  0.3328108427282856  0.1313181029643218  0.4278359404830923   F   F   F
  0.2581866711651202  0.3423726168552079  0.5795646223034439   F   F   F
  0.3560439348708542  0.2157748010357707  0.5635848618646406   F   F   F
  0.4760509698249393  0.3547283002155908  0.5072056726829643   F   F   F
  0.3780098865293127  0.4813491730878567  0.5232635452510195   F   F   F
  0.0572094665586604  0.1406956991309585  0.5591678785740655   F   F   F
  0.0828115205656985  0.3944539472283708  0.5727661560197674   F   F   F
  0.1768614834644140  0.0563424554666554  0.5276318489661804   F   F   F
  0.1512854977469189  0.3024251718091691  0.5140239261879529   F   F   F
  0.0820629327351178  0.0161001566522260  0.6654712141442877   T   T   T
  0.1734682117510813  0.3837826749073903  0.6521210305071737   T   T   T
  0.2931807920456597  0.0245950214496318  0.5942892894422891   T   T   T
  0.1971191533322849  0.1528217086832284  0.6086537594613532   T   T   T
  0.3746465137999040  0.3132643781440558  0.6473538694420544   T   T   T
  0.4017549693594143  0.0652803373803319  0.6570936292851917   T   T   T
  0.4936098264023459  0.2276483061811559  0.6141670029266721   T   T   T
  0.4692659422932465  0.4724885980333560  0.6018931001288944   T   T   T
  0.3983267525280954  0.1820037063000325  0.7616409934191863   T   T   T
  0.4916423699294060  0.0600118407488756  0.7382217585700559   T   T   T
  0.1092798621968413  0.1939945425797212  0.6794498779343664   T   T   T
  0.0121465864982051  0.3187086944670018  0.6983835466796152   T   T   T
  0.1759791038107047  0.4793928166856722  0.7318086253544601   T   T   T
  0.2166260736073416  0.2362242940432994  0.7407749501746539   T   T   T
  0.3144576517181948  0.4040768623352270  0.7014132698270485   T   T   T
  0.3018666872752011  0.1505394241678923  0.6902623613936291   T   T   T
  0.1288949434805602  0.5023484482531160  0.4055195577942712   F   F   F
  0.2171202300603028  0.8655754167956218  0.3861183836848383   F   F   F
  0.2422423265160418  0.6476133702675639  0.3459273718759022   F   F   F
  0.4156474648569883  0.7981851794507051  0.3852004440830470   F   F   F
  0.4483239667788155  0.5539867416112187  0.4013417443530614   F   F   F
  0.0299853079052994  0.7126836452998830  0.3518312443090039   F   F   F
  0.0187047647402281  0.9596688007873126  0.3441004418035476   F   F   F
  0.4407066994469560  0.6746064507354319  0.4921106331816247   F   F   F
  0.0377163539790217  0.5445207962015530  0.4784636998764498   F   F   F
  0.1535412081513883  0.6806685489506918  0.4213457166182479   F   F   F
  0.0591853098903883  0.8140539111662690  0.4348011568349932   F   F   F
  0.2394803088388997  0.9691793816761418  0.4727388595325124   F   F   F
  0.2650519437344911  0.7243375790944881  0.4843499474579644   F   F   F
  0.3566567918926324  0.8873940024069498  0.4403535575654089   F   F   F
  0.3328108423860741  0.6313181029643218  0.4278359404830923   F   F   F
  0.2581866708229015  0.8423726168552079  0.5795646223034439   F   F   F
  0.3560439345286426  0.7157748010357707  0.5635848618646406   F   F   F
  0.4760509541447320  0.8547282618384600  0.5072056726829643   F   F   F
  0.3780098499122886  0.9813491730878567  0.5232635452510195   F   F   F
  0.0572094306260666  0.6406956991309585  0.5591678785740655   F   F   F
  0.0828115209079101  0.8944539472283708  0.5727661560197674   F   F   F
  0.1768614841147524  0.5563424562046748  0.5276318489661804   F   F   F
  0.1512854611298948  0.8024251718091691  0.5140239261879529   F   F   F
  0.0791650227526844  0.5162861189349921  0.6653839948008571   T   T   T
  0.1764326796990774  0.8870211374257508  0.6519972788408634   T   T   T
  0.2920942015303754  0.5244052922983046  0.5946360580889436   T   T   T
  0.1972396608002057  0.6526291569515212  0.6089562296101793   T   T   T
  0.3746251625524880  0.8105727825008457  0.6473133219720082   T   T   T
  0.4033828344284194  0.5645977021884944  0.6577716968199586   T   T   T
  0.4936414396269422  0.7279088665057892  0.6142802176243207   T   T   T
  0.4699240039224852  0.9726735452288986  0.6022934993836424   T   T   T
  0.4061705466800083  0.6889500697513493  0.7625564476045211   T   T   T
  0.5017526303698449  0.5657622080061409  0.7366718484668536   T   T   T
  0.1103090182862946  0.6998871811172622  0.6784583482919077   T   T   T
  0.0181297331540286  0.8280824657562817  0.6998914569836570   T   T   T
  0.2062300418817421  0.9854986007447520  0.7339008650593496   T   T   T
  0.2175744404620381  0.7408240868184395  0.7414030308326206   T   T   T
  0.3199455084517420  0.9039218110133351  0.7002957715784753   T   T   T
  0.3032134395640387  0.6479835528159681  0.6923819480624109   T   T   T
  0.6288949256853655  0.0023484482531160  0.4055195577942712   F   F   F
  0.7171202485399277  0.3655754167956218  0.3861183836848383   F   F   F
  0.7422423440031096  0.1476133695295374  0.3459273718759022   F   F   F
  0.9156474470618008  0.2981851794507051  0.3852004440830470   F   F   F
  0.9483239482991976  0.0539867416112187  0.4013417443530614   F   F   F
  0.5299853260767975  0.2126836445618636  0.3518312443090039   F   F   F
  0.5187047825354156  0.4596688007873126  0.3441004418035476   F   F   F
  0.9407067179265738  0.1746064507354319  0.4921106331816247   F   F   F
  0.5377163717742093  0.0445207962015530  0.4784636998764498   F   F   F
  0.6535411903561936  0.1806685489506918  0.4213457166182479   F   F   F
  0.5591852920952007  0.3140539111662690  0.4348011568349932   F   F   F
  0.7394803273185175  0.4691793816761418  0.4727388595325124   F   F   F
  0.7650519615296787  0.2243375790944881  0.4843499474579644   F   F   F
  0.8566568103722574  0.3873940024069498  0.4403535575654089   F   F   F
  0.8328108608656919  0.1313181029643218  0.4278359404830923   F   F   F
  0.7581866530277139  0.3423726168552079  0.5795646223034439   F   F   F
  0.8560439167334479  0.2157748010357707  0.5635848618646406   F   F   F
  0.9760509516875331  0.3547283002155908  0.5072056726829643   F   F   F
  0.8780098683919064  0.4813491730878567  0.5232635452510195   F   F   F
  0.5572094484212542  0.1406956991309585  0.5591678785740655   F   F   F
  0.5828115387031048  0.3944539472283708  0.5727661560197674   F   F   F
  0.6768614653270077  0.0563424554666554  0.5276318489661804   F   F   F
  0.6512854796095198  0.3024251718091691  0.5140239261879529   F   F   F
  0.5789973913284870  0.0153141655299730  0.6666586728774209   T   T   T
  0.6735148511178851  0.3824282041592432  0.6523906650964845   T   T   T
  0.7935433262629603  0.0236885289684115  0.5944140573648663   T   T   T
  0.6972979691831169  0.1523179365119051  0.6086116710634579   T   T   T
  0.8759524291651301  0.3118612640541344  0.6472826308402703   T   T   T
  0.9023030490885577  0.0645843092165509  0.6574570506526776   T   T   T
  0.9944247672523079  0.2277638865967658  0.6139206581071066   T   T   T
  0.9687883884599027  0.4720299576264345  0.6017568494998783   T   T   T
  0.8818732363184395  0.1734166776250857  0.7563427631487853   T   T   T
  0.9945892174925492  0.0603442011441418  0.7385192118746590   T   T   T
  0.6094898472193286  0.1952886578919312  0.6811358243232836   T   T   T
  0.5104314829993627  0.3213438232047794  0.6983479436808856   T   T   T
  0.6979349154946068  0.4832239014418248  0.7294664459644599   T   T   T
  0.7200098303672646  0.2348398124391572  0.7419314080541929   T   T   T
  0.8177292298242976  0.4000548100443171  0.7031705251659430   T   T   T
  0.7958135097833263  0.1463537160460341  0.6879884442526324   T   T   T
  0.6288949253431539  0.5023484482531160  0.4055195577942712   F   F   F
  0.7171202481977090  0.8655754167956218  0.3861183836848383   F   F   F
  0.7422423439690178  0.6476133702675639  0.3459273718759022   F   F   F
  0.9156474467195821  0.7981851794507051  0.3852004440830470   F   F   F
  0.9483239486414092  0.5539867416112187  0.4013417443530614   F   F   F
  0.5299853260427057  0.7126836452998830  0.3518312443090039   F   F   F
  0.5187047828776272  0.9596688007873126  0.3441004418035476   F   F   F
  0.9407067175843622  0.6746064507354319  0.4921106331816247   F   F   F
  0.5377163358416155  0.5445207962015530  0.4784636998764498   F   F   F
  0.6535411900139820  0.6806685489506918  0.4213457166182479   F   F   F
  0.5591852917529891  0.8140539111662690  0.4348011568349932   F   F   F
  0.7394802907014935  0.9691793816761418  0.4727388595325124   F   F   F
  0.7650519255970849  0.7243375790944881  0.4843499474579644   F   F   F
  0.8566568100300387  0.8873940024069498  0.4403535575654089   F   F   F
  0.8328108605234732  0.6313181029643218  0.4278359404830923   F   F   F
  0.7581866526854952  0.8423726168552079  0.5795646223034439   F   F   F
  0.8560439163912363  0.7157748010357707  0.5635848618646406   F   F   F
  0.9760509360073257  0.8547282618384600  0.5072056726829643   F   F   F
  0.8780098680496948  0.9813491730878567  0.5232635452510195   F   F   F
  0.5572094487634729  0.6406956991309585  0.5591678785740655   F   F   F
  0.5828115383608861  0.8944539472283708  0.5727661560197674   F   F   F
  0.6768614659773462  0.5563424562046748  0.5276318489661804   F   F   F
  0.6512854792673011  0.8024251718091691  0.5140239261879529   F   F   F
  0.5815432609780974  0.5165329145256092  0.6655301265623675   T   T   T
  0.6751231379075561  0.8867795508374313  0.6524671339444077   T   T   T
  0.7932546291935567  0.5234227585456481  0.5947612262963382   T   T   T
  0.6979467734235879  0.6524544744503572  0.6083380984085230   T   T   T
  0.8778153578518901  0.8121722987724246  0.6475095652565068   T   T   T
  0.9011472422861091  0.5631677874916258  0.6588435457642347   T   T   T
  0.9939480285414763  0.7276759134572826  0.6140625236255075   T   T   T
  0.9697094919596104  0.9721451579174212  0.6020049766286193   T   T   T
  0.8857011878459788  0.6797249083541136  0.7556804469875992   T   T   T
  0.9961415001574572  0.5664552191313702  0.7399154958230306   T   T   T
  0.6153080678675502  0.6992759365154775  0.6795051440338169   T   T   T
  0.5122559351350646  0.8223588309443632  0.6988893082604908   T   T   T
  0.7037604164191223  0.9843358755220027  0.7325495464511569   T   T   T
  0.7236413690637495  0.7387210916769317  0.7414608271976704   T   T   T
  0.8192251753436915  0.9023385447946004  0.7017418082340929   T   T   T
  0.7978037969691775  0.6476801493454042  0.6888583665789400   T   T   T
  0.8438790223745301  0.0134899652354292  0.3353585148273055   F   F   F
  0.8438790223750132  0.5134900652373702  0.3353585148273055   F   F   F
  0.3438790223750132  0.5134900652373702  0.3353585148273055   F   F   F
  0.3438790223745301  0.0134899652354292  0.3353585148273055   F   F   F
  0.6408904617957771  0.0742949547721572  0.7946203023181013   T   T   T
  0.7007248779944333  0.3432525030411585  0.8529955869383854   T   T   T
  0.6519844081721905  0.5783373030280772  0.7937148869628224   T   T   T
  0.7154552444103601  0.8649148514280128  0.8406415907861506   T   T   T
  0.1582745018665856  0.0887374038239064  0.7963563832614123   T   T   T
  0.1744801605369384  0.5910013254151383  0.8042677137265842   T   T   T
  0.1129171858475285  0.3180047096586758  0.7845728452458356   T   T   T
  0.1036312519879059  0.8120957350827475  0.7856094125879657   T   T   T
  0.3446429640529144  0.0924972568614667  0.8318648645599519   T   T   T
  0.3927085629635072  0.6207527066540864  0.8395647793943468   T   T   T
  0.4135204583059120  0.3667613513590901  0.7696456782663612   T   T   T
  0.4111820492096457  0.8677969021544018  0.7701814314701200   T   T   T
  0.9429698598227153  0.1768303924850747  0.8355226212603645   T   T   T
  0.9115171519009145  0.6091291649179891  0.8398985449856270   T   T   T
  0.9839547160515243  0.0459748936471595  0.8651114179924798   T   T   T
  0.9839237101167162  0.5155231974601834  0.8729078007605038   T   T   T
  0.9256931464922816  0.3628947141595364  0.7710670588011587   T   T   T
  0.9227699733178545  0.8666563982438448  0.7704767960220825   T   T   T
  0.1291908877851404  0.9449650962379640  0.8325237196989471   T   T   T
  0.1180501039060114  0.4371373813856964  0.8365487839914703   T   T   T
  0.1777773485154890  0.2379145050041966  0.8296690143800978   T   T   T
  0.1568750962641012  0.7282768676765006  0.8333444240142356   T   T   T
  0.3660454529645124  0.9394537705961870  0.8269393237741887   T   T   T
  0.4284801328229141  0.4669865284094337  0.8343398140780286   T   T   T
  0.5772001414134547  0.2864728687067742  0.7700282363544769   T   T   T
  0.5833972898144072  0.7919210613486548  0.7704524820738472   T   T   T
  0.5905526802548430  0.9281789390681284  0.8381885812263109   T   T   T
  0.6072312674181402  0.4370432241488424  0.8402010225558966   T   T   T
  0.6175335635164323  0.1732777774731286  0.8444634784332583   T   T   T
  0.6681921043961315  0.6940403053754010  0.8441037509993466   T   T   T
  0.9115479285789418  0.8787247202447334  0.8418958533970556   T   T   T
  0.9022977483629535  0.3626651000826636  0.8415399374645930   T   T   T
  0.8266765111072344  0.4920796022972028  0.7880932448944723   T   T   T
  0.3124176264931662  0.4921135632047325  0.7772755907941358   T   T   T
  0.6333261095550675  0.1277279609454547  0.8159661627054162   T   T   T
  0.6607927158415339  0.3834863039370556  0.8453364051589206   T   T   T
  0.6604297526446657  0.6378263519814226  0.8143833390014498   T   T   T
  0.6593306658101304  0.8884235305544221  0.8387117187541527   T   T   T
  0.1716071235270425  0.1731723012904459  0.8171596996382172   T   T   T
  0.1664542126841353  0.6684945946989762  0.8219448057241170   T   T   T
  0.1094669172717261  0.3863512007449254  0.8148445776262758   T   T   T
  0.1158949637878232  0.8909192784375370  0.8116642186044658   T   T   T
  0.3705243741309505  0.1586032828038566  0.7898900579264903   T   T   T
  0.3831780420226398  0.6663411629774428  0.7913198543498667   T   T   T
  0.4182390851430525  0.4306196338532053  0.8082606179715773   T   T   T
  0.3882735575555435  0.9104124172577256  0.8020408432260020   T   T   T
  0.9092468891677612  0.1820341854571054  0.7845496342917883   T   T   T
  0.9234999120361714  0.6979820675019032  0.7812342396978584   T   T   T
  0.9557769126192307  0.1221865473714192  0.8474398299773562   T   T   T
  0.9463038371574867  0.5711381334791343  0.8569626307835843   T   T   T
  0.9105479820633907  0.3626554944230762  0.8084966496771496   T   T   T
  0.9135180388305021  0.8728262456398200  0.8101945748071856   T   T   T
  0.1467092745647930  0.0243116450173311  0.8136542925651797   T   T   T
  0.1499228255603305  0.5243345293948125  0.8205789082149928   T   T   T
  0.1449269704992035  0.2779318524745127  0.8037079056059152   T   T   T
  0.1306520347494392  0.7693366149905700  0.8057152042876241   T   T   T
  0.3571820506656861  0.0315166703051493  0.8302791669826676   T   T   T
  0.4023041448866729  0.5596984807414930  0.8362095020021575   T   T   T
  0.4761773123795288  0.2238062888136270  0.7667655336097565   T   T   T
  0.4842796334471417  0.7325037612742652  0.7669656208882175   T   T   T
  0.6098091974896398  0.9840676117151143  0.8184723590539491   T   T   T
  0.6256040830057270  0.4899038787523466  0.8190998098426191   T   T   T
  0.6558221999479287  0.2507355164880871  0.8465018581335763   T   T   T
  0.6878518372587273  0.7691470328511800  0.8404860986053925   T   T   T
  0.9507631968958984  0.9750404100062340  0.8555712984164174   T   T   T
  0.9470658466122260  0.4435509938578794  0.8589927066563463   T   T   T
  0.8621904374455658  0.5429434601801847  0.8103259387249089   T   T   T
  0.2039164011545537  0.4817276855255959  0.7597381962116361   T   T   T
 
  0.00000000E+00  0.00000000E+00  0.00000000E+00
  0.00000000E+00  0.00000000E+00  0.00000000E+00
  0.00000000E+00  0.00000000E+00  0.00000000E+00
  0.00000000E+00  0.00000000E+00  0.00000000E+00
  0.00000000E+00  0.00000000E+00  0.00000000E+00
  0.00000000E+00  0.00000000E+00  0.00000000E+00
  0.00000000E+00  0.00000000E+00  0.00000000E+00
  0.00000000E+00  0.00000000E+00  0.00000000E+00
  0.00000000E+00  0.00000000E+00  0.00000000E+00
  0.00000000E+00  0.00000000E+00  0.00000000E+00
  0.00000000E+00  0.00000000E+00  0.00000000E+00
  0.00000000E+00  0.00000000E+00  0.00000000E+00
  0.00000000E+00  0.00000000E+00  0.00000000E+00
  0.00000000E+00  0.00000000E+00  0.00000000E+00
  0.00000000E+00  0.00000000E+00  0.00000000E+00
  0.00000000E+00  0.00000000E+00  0.00000000E+00
  0.00000000E+00  0.00000000E+00  0.00000000E+00
  0.00000000E+00  0.00000000E+00  0.00000000E+00
  0.00000000E+00  0.00000000E+00  0.00000000E+00
  0.00000000E+00  0.00000000E+00  0.00000000E+00
  0.00000000E+00  0.00000000E+00  0.00000000E+00
  0.00000000E+00  0.00000000E+00  0.00000000E+00
  0.00000000E+00  0.00000000E+00  0.00000000E+00
  0.00000000E+00  0.00000000E+00  0.00000000E+00
  0.00000000E+00  0.00000000E+00  0.00000000E+00
  0.00000000E+00  0.00000000E+00  0.00000000E+00
  0.00000000E+00  0.00000000E+00  0.00000000E+00
  0.00000000E+00  0.00000000E+00  0.00000000E+00
  0.00000000E+00  0.00000000E+00  0.00000000E+00
  0.00000000E+00  0.00000000E+00  0.00000000E+00
  0.00000000E+00  0.00000000E+00  0.00000000E+00
  0.00000000E+00  0.00000000E+00  0.00000000E+00
  0.00000000E+00  0.00000000E+00  0.00000000E+00
  0.00000000E+00  0.00000000E+00  0.00000000E+00
  0.00000000E+00  0.00000000E+00  0.00000000E+00
  0.00000000E+00  0.00000000E+00  0.00000000E+00
  0.00000000E+00  0.00000000E+00  0.00000000E+00
  0.00000000E+00  0.00000000E+00  0.00000000E+00
  0.00000000E+00  0.00000000E+00  0.00000000E+00
  0.00000000E+00  0.00000000E+00  0.00000000E+00
  0.00000000E+00  0.00000000E+00  0.00000000E+00
  0.00000000E+00  0.00000000E+00  0.00000000E+00
  0.00000000E+00  0.00000000E+00  0.00000000E+00
  0.00000000E+00  0.00000000E+00  0.00000000E+00
  0.00000000E+00  0.00000000E+00  0.00000000E+00
  0.00000000E+00  0.00000000E+00  0.00000000E+00
  0.00000000E+00  0.00000000E+00  0.00000000E+00
  0.00000000E+00  0.00000000E+00  0.00000000E+00
  0.00000000E+00  0.00000000E+00  0.00000000E+00
  0.00000000E+00  0.00000000E+00  0.00000000E+00
  0.00000000E+00  0.00000000E+00  0.00000000E+00
  0.00000000E+00  0.00000000E+00  0.00000000E+00
  0.00000000E+00  0.00000000E+00  0.00000000E+00
  0.00000000E+00  0.00000000E+00  0.00000000E+00
  0.00000000E+00  0.00000000E+00  0.00000000E+00
  0.00000000E+00  0.00000000E+00  0.00000000E+00
  0.00000000E+00  0.00000000E+00  0.00000000E+00
  0.00000000E+00  0.00000000E+00  0.00000000E+00
  0.00000000E+00  0.00000000E+00  0.00000000E+00
  0.00000000E+00  0.00000000E+00  0.00000000E+00
  0.00000000E+00  0.00000000E+00  0.00000000E+00
  0.00000000E+00  0.00000000E+00  0.00000000E+00
  0.00000000E+00  0.00000000E+00  0.00000000E+00
  0.00000000E+00  0.00000000E+00  0.00000000E+00
  0.00000000E+00  0.00000000E+00  0.00000000E+00
  0.00000000E+00  0.00000000E+00  0.00000000E+00
  0.00000000E+00  0.00000000E+00  0.00000000E+00
  0.00000000E+00  0.00000000E+00  0.00000000E+00
  0.00000000E+00  0.00000000E+00  0.00000000E+00
  0.00000000E+00  0.00000000E+00  0.00000000E+00
  0.00000000E+00  0.00000000E+00  0.00000000E+00
  0.00000000E+00  0.00000000E+00  0.00000000E+00
  0.00000000E+00  0.00000000E+00  0.00000000E+00
  0.00000000E+00  0.00000000E+00  0.00000000E+00
  0.00000000E+00  0.00000000E+00  0.00000000E+00
  0.00000000E+00  0.00000000E+00  0.00000000E+00
  0.00000000E+00  0.00000000E+00  0.00000000E+00
  0.00000000E+00  0.00000000E+00  0.00000000E+00
  0.00000000E+00  0.00000000E+00  0.00000000E+00
  0.00000000E+00  0.00000000E+00  0.00000000E+00
  0.00000000E+00  0.00000000E+00  0.00000000E+00
  0.00000000E+00  0.00000000E+00  0.00000000E+00
  0.00000000E+00  0.00000000E+00  0.00000000E+00
  0.00000000E+00  0.00000000E+00  0.00000000E+00
  0.00000000E+00  0.00000000E+00  0.00000000E+00
  0.00000000E+00  0.00000000E+00  0.00000000E+00
  0.00000000E+00  0.00000000E+00  0.00000000E+00
  0.00000000E+00  0.00000000E+00  0.00000000E+00
  0.00000000E+00  0.00000000E+00  0.00000000E+00
  0.00000000E+00  0.00000000E+00  0.00000000E+00
  0.00000000E+00  0.00000000E+00  0.00000000E+00
  0.00000000E+00  0.00000000E+00  0.00000000E+00
  0.00000000E+00  0.00000000E+00  0.00000000E+00
  0.00000000E+00  0.00000000E+00  0.00000000E+00
  0.00000000E+00  0.00000000E+00  0.00000000E+00
  0.00000000E+00  0.00000000E+00  0.00000000E+00
  0.00000000E+00  0.00000000E+00  0.00000000E+00
  0.00000000E+00  0.00000000E+00  0.00000000E+00
  0.00000000E+00  0.00000000E+00  0.00000000E+00
  0.00000000E+00  0.00000000E+00  0.00000000E+00
  0.00000000E+00  0.00000000E+00  0.00000000E+00
  0.00000000E+00  0.00000000E+00  0.00000000E+00
  0.00000000E+00  0.00000000E+00  0.00000000E+00
  0.00000000E+00  0.00000000E+00  0.00000000E+00
  0.00000000E+00  0.00000000E+00  0.00000000E+00
  0.00000000E+00  0.00000000E+00  0.00000000E+00
  0.00000000E+00  0.00000000E+00  0.00000000E+00
  0.00000000E+00  0.00000000E+00  0.00000000E+00
  0.00000000E+00  0.00000000E+00  0.00000000E+00
  0.00000000E+00  0.00000000E+00  0.00000000E+00
  0.00000000E+00  0.00000000E+00  0.00000000E+00
  0.00000000E+00  0.00000000E+00  0.00000000E+00
  0.00000000E+00  0.00000000E+00  0.00000000E+00
  0.00000000E+00  0.00000000E+00  0.00000000E+00
  0.00000000E+00  0.00000000E+00  0.00000000E+00
  0.00000000E+00  0.00000000E+00  0.00000000E+00
  0.00000000E+00  0.00000000E+00  0.00000000E+00
  0.00000000E+00  0.00000000E+00  0.00000000E+00
  0.00000000E+00  0.00000000E+00  0.00000000E+00
  0.00000000E+00  0.00000000E+00  0.00000000E+00
  0.00000000E+00  0.00000000E+00  0.00000000E+00
  0.00000000E+00  0.00000000E+00  0.00000000E+00
  0.00000000E+00  0.00000000E+00  0.00000000E+00
  0.00000000E+00  0.00000000E+00  0.00000000E+00
  0.00000000E+00  0.00000000E+00  0.00000000E+00
  0.00000000E+00  0.00000000E+00  0.00000000E+00
  0.00000000E+00  0.00000000E+00  0.00000000E+00
  0.00000000E+00  0.00000000E+00  0.00000000E+00
  0.00000000E+00  0.00000000E+00  0.00000000E+00
  0.00000000E+00  0.00000000E+00  0.00000000E+00
  0.00000000E+00  0.00000000E+00  0.00000000E+00
  0.00000000E+00  0.00000000E+00  0.00000000E+00
  0.00000000E+00  0.00000000E+00  0.00000000E+00
  0.00000000E+00  0.00000000E+00  0.00000000E+00
  0.00000000E+00  0.00000000E+00  0.00000000E+00
  0.00000000E+00  0.00000000E+00  0.00000000E+00
  0.00000000E+00  0.00000000E+00  0.00000000E+00
  0.00000000E+00  0.00000000E+00  0.00000000E+00
  0.00000000E+00  0.00000000E+00  0.00000000E+00
  0.00000000E+00  0.00000000E+00  0.00000000E+00
  0.00000000E+00  0.00000000E+00  0.00000000E+00
  0.00000000E+00  0.00000000E+00  0.00000000E+00
  0.00000000E+00  0.00000000E+00  0.00000000E+00
  0.00000000E+00  0.00000000E+00  0.00000000E+00
  0.00000000E+00  0.00000000E+00  0.00000000E+00
  0.00000000E+00  0.00000000E+00  0.00000000E+00