Zr  O  F  H                             
   1.00000000000000     
    14.6087084399999991    0.0000000000000000    0.0000000000000000
    -6.0995943700000002   13.5475736500000004    0.0000000000000000
     0.0000000000000000    0.0000000000000000   32.4658957799999968
   Zr   O    F    H 
    80   160    30    30
Selective dynamics
Direct
  0.1072999602879108  0.1107509020259130  0.3626799193464265   F   F   F
  0.3752027684508334  0.1411823791782822  0.3611695660103535   F   F   F
  0.3729099757713499  0.4229177172991427  0.3686418726315495   F   F   F
  0.0769991309152616  0.3675992767162413  0.3710084865553043   F   F   F
  0.4150241426110028  0.2799622327943538  0.4516720934905933   F   F   F
  0.1984057059501083  0.3151122314806543  0.4480415241448767   F   F   F
  0.1804103960495240  0.0775491807715696  0.4568444542699766   F   F   F
  0.4012433377734936  0.0448202538467086  0.4606724581803618   F   F   F
  0.2344424391150781  0.4480134719179034  0.5408472105925028   F   F   F
  0.0161400524639745  0.4843520754729411  0.5390958181964578   F   F   F
  0.4998527713696888  0.2495595232287187  0.5457642774149249   F   F   F
  0.2182112126040039  0.2133152672692802  0.5475478657807713   F   F   F
  0.0541065482000513  0.1204854522825905  0.6297895479830712   T   T   T
  0.3329951226087360  0.1529637872256743  0.6270348671149292   T   T   T
  0.3142046650369038  0.4138627301101764  0.6342354878591714   T   T   T
  0.0345448187339286  0.3820798421035721  0.6379635409973410   T   T   T
  0.3696818259209054  0.2809684520434491  0.7192182229827161   T   T   T
  0.1443111036564101  0.3189355506928754  0.7181976393610796   T   T   T
  0.1174693957248714  0.0784356694437451  0.7254423987245980   T   T   T
  0.3655536381819173  0.0476730925996618  0.7225368242876045   T   T   T
  0.1072999600997520  0.6107509023949831  0.3626799193464265   F   F   F
  0.3752027682626675  0.6411823795473524  0.3611695660103535   F   F   F
  0.3729099755831840  0.9229177176682128  0.3686418726315495   F   F   F
  0.0769991314116254  0.8675992770853114  0.3710084865553043   F   F   F
  0.4150241424228369  0.7799622331634239  0.4516720934905933   F   F   F
  0.1984057057619495  0.8151122318497244  0.4480415241448767   F   F   F
  0.1804103962376828  0.5775491804024995  0.4568444542699766   F   F   F
  0.4012433379616525  0.5448202534776385  0.4606724581803618   F   F   F
  0.2344424386187143  0.9480134715488333  0.5408472105925028   F   F   F
  0.0161400522758157  0.9843520758420112  0.5390958181964578   F   F   F
  0.4998527715578547  0.7495595228596557  0.5457642774149249   F   F   F
  0.2182112127921698  0.7133152669002101  0.5475478657807713   F   F   F
  0.0541140851982951  0.6201022642343047  0.6300330666477449   T   T   T
  0.3330465075208128  0.6528580613331632  0.6268900291863111   T   T   T
  0.3151343145792676  0.9144289743434314  0.6340900011187277   T   T   T
  0.0364306920400938  0.8827722227110028  0.6379554015281078   T   T   T
  0.3697221630526140  0.7808031496902249  0.7190523005727939   T   T   T
  0.1466260318750955  0.8197824102216865  0.7184542146897491   T   T   T
  0.1186533655594857  0.5791289439295564  0.7255755142094514   T   T   T
  0.3656692702272640  0.5472282681016313  0.7223218309595254   T   T   T
  0.6072999602879108  0.1107509020259130  0.3626799193464265   F   F   F
  0.8752027684508334  0.1411823791782822  0.3611695660103535   F   F   F
  0.8729099757713499  0.4229177172991427  0.3686418726315495   F   F   F
  0.5769991309152616  0.3675992767162413  0.3710084865553043   F   F   F
  0.9150241426110028  0.2799622327943538  0.4516720934905933   F   F   F
  0.6984057059501083  0.3151122314806543  0.4480415241448767   F   F   F
  0.6804103960495240  0.0775491807715696  0.4568444542699766   F   F   F
  0.9012433377734936  0.0448202538467086  0.4606724581803618   F   F   F
  0.7344424391150781  0.4480134719179034  0.5408472105925028   F   F   F
  0.5161400524639745  0.4843520754729411  0.5390958181964578   F   F   F
  0.9998527713696888  0.2495595232287187  0.5457642774149249   F   F   F
  0.7182112126040039  0.2133152672692802  0.5475478657807713   F   F   F
  0.5554578766961680  0.1193442033651089  0.6305374730001946   T   T   T
  0.8347695428107266  0.1583435888475704  0.6275133230634329   T   T   T
  0.8173201248748115  0.4163062644751407  0.6348649393466935   T   T   T
  0.5367155044966410  0.3830049012450736  0.6382509459695848   T   T   T
  0.8666890269590795  0.2824240515060031  0.7318641170061709   T   T   T
  0.6567770117893555  0.3274888886066688  0.7168435913704579   T   T   T
  0.6334359569228152  0.0899669800106794  0.7261619944898910   T   T   T
  0.8501712778950453  0.0584383751493193  0.7226708790490300   T   T   T
  0.6072999600997520  0.6107509023949831  0.3626799193464265   F   F   F
  0.8752027682626675  0.6411823795473524  0.3611695660103535   F   F   F
  0.8729099755831840  0.9229177176682128  0.3686418726315495   F   F   F
  0.5769991314116254  0.8675992770853114  0.3710084865553043   F   F   F
  0.9150241424228369  0.7799622331634239  0.4516720934905933   F   F   F
  0.6984057057619495  0.8151122318497244  0.4480415241448767   F   F   F
  0.6804103962376828  0.5775491804024995  0.4568444542699766   F   F   F
  0.9012433379616525  0.5448202534776385  0.4606724581803618   F   F   F
  0.7344424386187143  0.9480134715488333  0.5408472105925028   F   F   F
  0.5161400522758157  0.9843520758420112  0.5390958181964578   F   F   F
  0.9998527715578547  0.7495595228596557  0.5457642774149249   F   F   F
  0.7182112127921698  0.7133152669002101  0.5475478657807713   F   F   F
  0.5549871488065322  0.6189660865187271  0.6304675178898514   T   T   T
  0.8333497198241068  0.6541474843190591  0.6272037534201280   T   T   T
  0.8169828875626908  0.9200618789343422  0.6341163785574900   T   T   T
  0.5363933202211187  0.8834716127595054  0.6380119373816550   T   T   T
  0.8653101010251820  0.7906218220068735  0.7195251349085554   T   T   T
  0.6562558061587765  0.8291297974366589  0.7168141194209161   T   T   T
  0.6340500657000872  0.5904957864914931  0.7258812575550994   T   T   T
  0.8496509741912500  0.5506848508274789  0.7237395084433148   T   T   T
  0.1332582265626669  0.0059689038117909  0.4018946551303202   F   F   F
  0.2181988781032373  0.3661521172833773  0.3825003874881503   F   F   F
  0.3442342672352794  0.0153678283195759  0.3310424656331463   F   F   F
  0.2448769086493598  0.1532202571934320  0.3416956173386723   F   F   F
  0.4183450511797773  0.3018822266376802  0.3812778210674068   F   F   F
  0.4479630891185806  0.0541491356276893  0.3979564111383311   F   F   F
  0.0314071462063694  0.2142568009586014  0.3475222399669775   F   F   F
  0.0226551989466728  0.4641564239069496  0.3395728532397797   F   F   F
  0.4439043559933253  0.1765955828555335  0.4903745631379621   F   F   F
  0.0376710753307208  0.0432766736795003  0.4766665390927969   F   F   F
  0.1526998132164152  0.1823197248313164  0.4187291303502150   F   F   F
  0.0609778626800761  0.3186209200641628  0.4320697212870783   F   F   F
  0.2410437716299114  0.4716434307777320  0.4708552709769123   F   F   F
  0.2643985499594521  0.2237504121632909  0.4830709797220933   F   F   F
  0.3563347177442537  0.3876955036889598  0.4380853724283114   F   F   F
  0.3354974923431868  0.1352524710577967  0.4250661838045247   F   F   F
  0.2604301099607511  0.3429483656654639  0.5797765521564813   F   F   F
  0.3553411594725162  0.2126448018977953  0.5638597850510294   F   F   F
  0.4741103145572438  0.3547873036290881  0.5067627900516811   F   F   F
  0.3790288096649093  0.4850060784869754  0.5227594134782905   F   F   F
  0.0583022340726487  0.1417510576146626  0.5591551179124750   F   F   F
  0.0814467987013927  0.3927345269682263  0.5733121160164103   F   F   F
  0.1760565422169620  0.0558733964144196  0.5274894555519936   F   F   F
  0.1528366743269487  0.3047856851473938  0.5132875909207399   F   F   F
  0.0808536238582133  0.0145593279874114  0.6688278775690719   T   T   T
  0.1745470326410289  0.3849324054158086  0.6568131929863005   T   T   T
  0.2899054513482900  0.0216628531873995  0.5961920934195034   T   T   T
  0.1970690852469785  0.1548294140449560  0.6104013453910859   T   T   T
  0.3752236114500098  0.3109324027655088  0.6495750904312134   T   T   T
  0.3985783309991192  0.0567257359601845  0.6608850853955618   T   T   T
  0.4907597623008375  0.2236141028165486  0.6162639246315907   T   T   T
  0.4696392834297949  0.4731448984379204  0.6030503237309776   T   T   T
  0.3850393848103089  0.1684847743322661  0.7597819654587801   T   T   T
  0.4897780219539505  0.0468009847527232  0.7435515184360476   T   T   T
  0.1159861161984666  0.1935789371647439  0.6856381808864339   T   T   T
  0.0094155379131729  0.3228990462912821  0.7021713250106661   T   T   T
  0.2045606845691474  0.4857129541069798  0.7409881642800024   T   T   T
  0.2135068475823397  0.2197242357673108  0.7536052672408154   T   T   T
  0.3109258450482454  0.3897581335400029  0.7102707279622544   T   T   T
  0.2958531917521846  0.1444126572348621  0.6918484111088026   T   T   T
  0.1332582267508329  0.5059689034427208  0.4018946551303202   F   F   F
  0.2181988782913962  0.8661521169143072  0.3825003874881503   F   F   F
  0.3442342677316361  0.5153678286886461  0.3310424656331463   F   F   F
  0.2448769088375258  0.6532202568243619  0.3416956173386723   F   F   F
  0.4183450516761411  0.8018822270067503  0.3812778210674068   F   F   F
  0.4479630886222168  0.5541491352586192  0.3979564111383311   F   F   F
  0.0314071467027262  0.7142568013276644  0.3475222399669775   F   F   F
  0.0226551984503160  0.9641564235378794  0.3395728532397797   F   F   F
  0.4439043561814913  0.6765955824864633  0.4903745631379621   F   F   F
  0.0376710748343640  0.5432766733104302  0.4766665390927969   F   F   F
  0.1526998137127720  0.6823197252003865  0.4187291303502150   F   F   F
  0.0609778628682420  0.8186209196950927  0.4320697212870783   F   F   F
  0.2410437718180773  0.9716434304086619  0.4708552709769123   F   F   F
  0.2643985494630883  0.7237504117942208  0.4830709797220933   F   F   F
  0.3563347182406105  0.8876955040580299  0.4380853724283114   F   F   F
  0.3354974925313456  0.6352524706887266  0.4250661838045247   F   F   F
  0.2604301101489170  0.8429483652963938  0.5797765521564813   F   F   F
  0.3553411589761595  0.7126448015287252  0.5638597850510294   F   F   F
  0.4741103143690779  0.8547873039981582  0.5067627900516811   F   F   F
  0.3790288101612731  0.9850060788560455  0.5227594134782905   F   F   F
  0.0583022335762848  0.6417510572455924  0.5591551179124750   F   F   F
  0.0814467982050360  0.8927345265991562  0.5733121160164103   F   F   F
  0.1760565417206053  0.5558733960453495  0.5274894555519936   F   F   F
  0.1528366745151146  0.8047856847783237  0.5132875909207399   F   F   F
  0.0797984168663425  0.5141499887114417  0.6694883377051276   T   T   T
  0.1754503821041463  0.8847982819105328  0.6563028022104594   T   T   T
  0.2894670414463520  0.5215214648490237  0.5962640389292740   T   T   T
  0.1969848291304047  0.6553088742173468  0.6106984974216647   T   T   T
  0.3756994238214367  0.8112020520208393  0.6495300503218818   T   T   T
  0.3983906349984909  0.5567215514008322  0.6607369184282478   T   T   T
  0.4909762413309955  0.7241219679166466  0.6162475547771162   T   T   T
  0.4703293458977323  0.9735684194463590  0.6032635040320673   T   T   T
  0.3833316691415369  0.6677573175206108  0.7596126318990296   T   T   T
  0.4906646475736408  0.5489690120903608  0.7438367877112257   T   T   T
  0.1152436744013286  0.6936724096633543  0.6862848155167323   T   T   T
  0.0155113939811467  0.8286754890079510  0.7012985964527374   T   T   T
  0.2055563294022708  0.9835179008900060  0.7421761843666870   T   T   T
  0.2152894919762396  0.7214737306913449  0.7538288431601714   T   T   T
  0.3111139993495519  0.8895807413183735  0.7100227783528426   T   T   T
  0.2960223095952913  0.6450406362152344  0.6915474158866156   T   T   T
  0.6332582265626669  0.0059689038117909  0.4018946551303202   F   F   F
  0.7181988787877600  0.3661521172833773  0.3825003874881503   F   F   F
  0.8442342672352794  0.0153678283195759  0.3310424656331463   F   F   F
  0.7448769086493598  0.1532202571934320  0.3416956173386723   F   F   F
  0.9183450511797773  0.3018822266376802  0.3812778210674068   F   F   F
  0.9479630891185806  0.0541491356276893  0.3979564111383311   F   F   F
  0.5314071462063694  0.2142568009586014  0.3475222399669775   F   F   F
  0.5226551989466728  0.4641564239069496  0.3395728532397797   F   F   F
  0.9439043559933253  0.1765955828555335  0.4903745631379621   F   F   F
  0.5376710753307208  0.0432766736795003  0.4766665390927969   F   F   F
  0.6526998132164152  0.1823197248313164  0.4187291303502150   F   F   F
  0.5609778626800761  0.3186209200641628  0.4320697212870783   F   F   F
  0.7410437716299114  0.4716434307777320  0.4708552709769123   F   F   F
  0.7643985499594521  0.2237504121632909  0.4830709797220933   F   F   F
  0.8563347177442537  0.3876955036889598  0.4380853724283114   F   F   F
  0.8354974923431868  0.1352524710577967  0.4250661838045247   F   F   F
  0.7604301099607511  0.3429483656654639  0.5797765521564813   F   F   F
  0.8553411594725162  0.2126448018977953  0.5638597850510294   F   F   F
  0.9741103145572438  0.3547873036290881  0.5067627900516811   F   F   F
  0.8790288096649093  0.4850060784869754  0.5227594134782905   F   F   F
  0.5583022340726487  0.1417510576146626  0.5591551179124750   F   F   F
  0.5814467987013927  0.3927345269682263  0.5733121160164103   F   F   F
  0.6760565422169620  0.0558733964144196  0.5274894555519936   F   F   F
  0.6528366743269487  0.3047856851473938  0.5132875909207399   F   F   F
  0.5806915695674202  0.0136668630429910  0.6690213520488559   T   T   T
  0.6716155397065703  0.3758091556388991  0.6533387665654198   T   T   T
  0.7900656669187918  0.0231656470811309  0.5959253407065330   T   T   T
  0.6967399825001983  0.1541089733424858  0.6102717663922959   T   T   T
  0.8791186450184217  0.3134029854391225  0.6431270091187765   T   T   T
  0.8997506652085691  0.0665129593430480  0.6599505286950971   T   T   T
  0.9972290180515442  0.2277457428072382  0.6161325853979904   T   T   T
  0.9744583173703381  0.4787801861102114  0.6035359585045393   T   T   T
  0.8764801633284287  0.1716909748137994  0.7622754935648292   T   T   T
  0.9840386246423061  0.0593640467835451  0.7386555642184444   T   T   T
  0.6015589773231499  0.1899353480107596  0.6856062960565475   T   T   T
  0.5114734944510690  0.3208425890831258  0.7013994337011731   T   T   T
  0.6939893802374179  0.4801914959941493  0.7295029909787304   T   T   T
  0.7136563045034596  0.2359838015358131  0.7479495469290408   T   T   T
  0.8159457484134190  0.3967256431007301  0.7053678937193306   T   T   T
  0.7930337611623370  0.1532163252144974  0.6910713731513486   T   T   T
  0.6332582267508329  0.5059689034427208  0.4018946551303202   F   F   F
  0.7181988782913962  0.8661521169143072  0.3825003874881503   F   F   F
  0.8442342677316361  0.5153678286886461  0.3310424656331463   F   F   F
  0.7448769088375258  0.6532202568243619  0.3416956173386723   F   F   F
  0.9183450516761411  0.8018822270067503  0.3812778210674068   F   F   F
  0.9479630893067394  0.5541491352586192  0.3979564111383311   F   F   F
  0.5314071467027262  0.7142568013276644  0.3475222399669775   F   F   F
  0.5226551984503160  0.9641564235378794  0.3395728532397797   F   F   F
  0.9439043561814913  0.6765955824864633  0.4903745631379621   F   F   F
  0.5376710748343640  0.5432766733104302  0.4766665390927969   F   F   F
  0.6526998137127720  0.6823197252003865  0.4187291303502150   F   F   F
  0.5609778628682420  0.8186209196950927  0.4320697212870783   F   F   F
  0.7410437718180773  0.9716434304086619  0.4708552709769123   F   F   F
  0.7643985494630883  0.7237504117942208  0.4830709797220933   F   F   F
  0.8563347182406105  0.8876955040580299  0.4380853724283114   F   F   F
  0.8354974925313456  0.6352524706887266  0.4250661838045247   F   F   F
  0.7604301101489170  0.8429483652963938  0.5797765521564813   F   F   F
  0.8553411589761595  0.7126448015287252  0.5638597850510294   F   F   F
  0.9741103150536077  0.8547873039981582  0.5067627900516811   F   F   F
  0.8790288101612731  0.9850060788560455  0.5227594134782905   F   F   F
  0.5583022335762848  0.6417510572455924  0.5591551179124750   F   F   F
  0.5814467982050360  0.8927345265991562  0.5733121160164103   F   F   F
  0.6760565417206053  0.5558733960453495  0.5274894555519936   F   F   F
  0.6528366745151146  0.8047856847783237  0.5132875909207399   F   F   F
  0.5793115929660199  0.5135887483348531  0.6686181818786534   T   T   T
  0.6718960433869832  0.8789943433139771  0.6538076245849648   T   T   T
  0.7907312126424197  0.5226444766578839  0.5962329021299775   T   T   T
  0.6974463539439175  0.6545967114440746  0.6104655483220802   T   T   T
  0.8778744362671248  0.8131994742486964  0.6485610499172525   T   T   T
  0.8987093432921162  0.5633294516839470  0.6611711274178247   T   T   T
  0.9950056856554421  0.7267374503453869  0.6166307436091470   T   T   T
  0.9726433562720967  0.9762576303263742  0.6036025390978431   T   T   T
  0.8913590927042656  0.6843326675787568  0.7573209983983784   T   T   T
  0.9848429462163679  0.5569367483649399  0.7404854227789639   T   T   T
  0.6013487034120782  0.6911375909804091  0.6851251940628142   T   T   T
  0.5120202435863890  0.8222472645051221  0.7016548357091951   T   T   T
  0.6971015480393968  0.9826049267011430  0.7348014557924014   T   T   T
  0.7181689413587554  0.7403920992184757  0.7452576600709900   T   T   T
  0.8155008970258955  0.9019731681961928  0.7037983995349136   T   T   T
  0.7929487982966754  0.6496456614150642  0.6916216379026424   T   T   T
  0.6487160688407552  0.0794224581249835  0.7993241037288136   T   T   T
  0.6680935045484068  0.5767432387976256  0.7926460800601719   T   T   T
  0.7526413472054929  0.8704353948429598  0.8373454939129363   T   T   T
  0.1907191159411717  0.2121236295076086  0.8425748752630194   T   T   T
  0.2002700300626697  0.7163321498851534  0.8425727192194649   T   T   T
  0.2186023803335100  0.4792715778867792  0.8551988176460100   T   T   T
  0.2162504812090974  0.9791192070412088  0.8523683146591866   T   T   T
  0.4475358255995991  0.1383962217423142  0.8345752995113187   T   T   T
  0.4418574849804515  0.6375770879204727  0.8351453868101840   T   T   T
  0.4400736062264037  0.3562306123912646  0.7770006020649625   T   T   T
  0.4413147458160263  0.8547773695783620  0.7774396038846770   T   T   T
  0.9321968673060214  0.3770326794619545  0.7805562953802681   T   T   T
  0.9262427260225199  0.8734599881451238  0.7740980494525922   T   T   T
  0.1101979884420707  0.3192503177788387  0.7773454143091313   T   T   T
  0.0962554092447248  0.8063054986925523  0.7763828957155317   T   T   T
  0.0864500684371526  0.5090898443297021  0.7928959777509232   T   T   T
  0.0792989994737728  0.0014319396890075  0.7897212977480847   T   T   T
  0.1256780345716682  0.0646890113709925  0.8793654931894326   T   T   T
  0.1355765428175565  0.5718554912433506  0.8809079111747252   T   T   T
  0.2137871050912470  0.3402567278099463  0.8904048807174944   T   T   T
  0.2213333591856228  0.8458780622456807  0.8895930724442588   T   T   T
  0.3909381033309601  0.9520909892364054  0.8260097164220930   T   T   T
  0.3941382302272608  0.4533250772552013  0.8272851750505050   T   T   T
  0.5852944835768674  0.3194409939863004  0.7799823643015615   T   T   T
  0.5816470731470736  0.8122607229870762  0.7794594441827327   T   T   T
  0.6483705259830972  0.9563114834091508  0.8448270375862278   T   T   T
  0.7150479721053955  0.2530894131910664  0.8474842964823064   T   T   T
  0.6839084927091305  0.6957680876029690  0.8439498832851805   T   T   T
  0.8853862980566941  0.1097572061407537  0.8351948090967403   T   T   T
  0.8028780813048142  0.5094924016813253  0.7966480311241779   T   T   T
  0.6935078199150653  0.1993929059226781  0.8288668571705388   T   T   T
  0.6778377163739877  0.6471457777594920  0.8204236356007157   T   T   T
  0.6948662628482004  0.9200200439974214  0.8417018492909423   T   T   T
  0.2040099482806864  0.2853871654228637  0.8696957986432835   T   T   T
  0.2139985976520160  0.7909339444674647  0.8694054651651623   T   T   T
  0.1695880921643667  0.5263694137035851  0.8704888210034601   T   T   T
  0.1624891203491685  0.0233187851753841  0.8685803860199328   T   T   T
  0.4160241416185941  0.1742299476644512  0.7873327715913807   T   T   T
  0.4129094178098676  0.6727912117183503  0.7873995242224877   T   T   T
  0.4204335627816248  0.4202085417531414  0.8071048183574369   T   T   T
  0.4193185898040449  0.9186054307266543  0.8069478680426679   T   T   T
  0.0137413618778010  0.4494081269781368  0.7898448434690013   T   T   T
  0.0037778239403697  0.9410527435751181  0.7845293745989721   T   T   T
  0.2075256549461792  0.2256681903171022  0.7836108643011223   T   T   T
  0.2111270237965204  0.7255701749116107  0.7840192865097679   T   T   T
  0.1844519030964089  0.4663316168592905  0.7698325065086078   T   T   T
  0.1845790063565731  0.9696378197411059  0.7712400934877832   T   T   T
  0.1577154276598755  0.1439784610123267  0.8585509468660073   T   T   T
  0.1687252066358403  0.6484285148597548  0.8594747720805781   T   T   T
  0.2163736094780508  0.4177191985299153  0.8712382102162061   T   T   T
  0.2196339012238688  0.9214608035109326  0.8691520888713838   T   T   T
  0.4337857498448466  0.0691011897319990  0.8328728340685679   T   T   T
  0.4305708397831687  0.5687152278484345  0.8335268752666229   T   T   T
  0.5267138569296389  0.3395970902760593  0.7810207359298393   T   T   T
  0.5237047232138226  0.8343887086464641  0.7810735095084034   T   T   T
  0.6538442425587244  0.0254565481151383  0.8183722087615708   T   T   T
  0.7466360549195770  0.5297417254654384  0.7985559342176709   T   T   T
  0.7212578243106684  0.7950419281083687  0.8388227231514527   T   T   T
  0.8879142201064256  0.1426799504061764  0.8090653698593877   T   T   T
  0.9428741293712358  0.7072596468646917  0.7787084541088619   T   T   T
 
  0.00000000E+00  0.00000000E+00  0.00000000E+00
  0.00000000E+00  0.00000000E+00  0.00000000E+00
  0.00000000E+00  0.00000000E+00  0.00000000E+00
  0.00000000E+00  0.00000000E+00  0.00000000E+00
  0.00000000E+00  0.00000000E+00  0.00000000E+00
  0.00000000E+00  0.00000000E+00  0.00000000E+00
  0.00000000E+00  0.00000000E+00  0.00000000E+00
  0.00000000E+00  0.00000000E+00  0.00000000E+00
  0.00000000E+00  0.00000000E+00  0.00000000E+00
  0.00000000E+00  0.00000000E+00  0.00000000E+00
  0.00000000E+00  0.00000000E+00  0.00000000E+00
  0.00000000E+00  0.00000000E+00  0.00000000E+00
  0.00000000E+00  0.00000000E+00  0.00000000E+00
  0.00000000E+00  0.00000000E+00  0.00000000E+00
  0.00000000E+00  0.00000000E+00  0.00000000E+00
  0.00000000E+00  0.00000000E+00  0.00000000E+00
  0.00000000E+00  0.00000000E+00  0.00000000E+00
  0.00000000E+00  0.00000000E+00  0.00000000E+00
  0.00000000E+00  0.00000000E+00  0.00000000E+00
  0.00000000E+00  0.00000000E+00  0.00000000E+00
  0.00000000E+00  0.00000000E+00  0.00000000E+00
  0.00000000E+00  0.00000000E+00  0.00000000E+00
  0.00000000E+00  0.00000000E+00  0.00000000E+00
  0.00000000E+00  0.00000000E+00  0.00000000E+00
  0.00000000E+00  0.00000000E+00  0.00000000E+00
  0.00000000E+00  0.00000000E+00  0.00000000E+00
  0.00000000E+00  0.00000000E+00  0.00000000E+00
  0.00000000E+00  0.00000000E+00  0.00000000E+00
  0.00000000E+00  0.00000000E+00  0.00000000E+00
  0.00000000E+00  0.00000000E+00  0.00000000E+00
  0.00000000E+00  0.00000000E+00  0.00000000E+00
  0.00000000E+00  0.00000000E+00  0.00000000E+00
  0.00000000E+00  0.00000000E+00  0.00000000E+00
  0.00000000E+00  0.00000000E+00  0.00000000E+00
  0.00000000E+00  0.00000000E+00  0.00000000E+00
  0.00000000E+00  0.00000000E+00  0.00000000E+00
  0.00000000E+00  0.00000000E+00  0.00000000E+00
  0.00000000E+00  0.00000000E+00  0.00000000E+00
  0.00000000E+00  0.00000000E+00  0.00000000E+00
  0.00000000E+00  0.00000000E+00  0.00000000E+00
  0.00000000E+00  0.00000000E+00  0.00000000E+00
  0.00000000E+00  0.00000000E+00  0.00000000E+00
  0.00000000E+00  0.00000000E+00  0.00000000E+00
  0.00000000E+00  0.00000000E+00  0.00000000E+00
  0.00000000E+00  0.00000000E+00  0.00000000E+00
  0.00000000E+00  0.00000000E+00  0.00000000E+00
  0.00000000E+00  0.00000000E+00  0.00000000E+00
  0.00000000E+00  0.00000000E+00  0.00000000E+00
  0.00000000E+00  0.00000000E+00  0.00000000E+00
  0.00000000E+00  0.00000000E+00  0.00000000E+00
  0.00000000E+00  0.00000000E+00  0.00000000E+00
  0.00000000E+00  0.00000000E+00  0.00000000E+00
  0.00000000E+00  0.00000000E+00  0.00000000E+00
  0.00000000E+00  0.00000000E+00  0.00000000E+00
  0.00000000E+00  0.00000000E+00  0.00000000E+00
  0.00000000E+00  0.00000000E+00  0.00000000E+00
  0.00000000E+00  0.00000000E+00  0.00000000E+00
  0.00000000E+00  0.00000000E+00  0.00000000E+00
  0.00000000E+00  0.00000000E+00  0.00000000E+00
  0.00000000E+00  0.00000000E+00  0.00000000E+00
  0.00000000E+00  0.00000000E+00  0.00000000E+00
  0.00000000E+00  0.00000000E+00  0.00000000E+00
  0.00000000E+00  0.00000000E+00  0.00000000E+00
  0.00000000E+00  0.00000000E+00  0.00000000E+00
  0.00000000E+00  0.00000000E+00  0.00000000E+00
  0.00000000E+00  0.00000000E+00  0.00000000E+00
  0.00000000E+00  0.00000000E+00  0.00000000E+00
  0.00000000E+00  0.00000000E+00  0.00000000E+00
  0.00000000E+00  0.00000000E+00  0.00000000E+00
  0.00000000E+00  0.00000000E+00  0.00000000E+00
  0.00000000E+00  0.00000000E+00  0.00000000E+00
  0.00000000E+00  0.00000000E+00  0.00000000E+00
  0.00000000E+00  0.00000000E+00  0.00000000E+00
  0.00000000E+00  0.00000000E+00  0.00000000E+00
  0.00000000E+00  0.00000000E+00  0.00000000E+00
  0.00000000E+00  0.00000000E+00  0.00000000E+00
  0.00000000E+00  0.00000000E+00  0.00000000E+00
  0.00000000E+00  0.00000000E+00  0.00000000E+00
  0.00000000E+00  0.00000000E+00  0.00000000E+00
  0.00000000E+00  0.00000000E+00  0.00000000E+00
  0.00000000E+00  0.00000000E+00  0.00000000E+00
  0.00000000E+00  0.00000000E+00  0.00000000E+00
  0.00000000E+00  0.00000000E+00  0.00000000E+00
  0.00000000E+00  0.00000000E+00  0.00000000E+00
  0.00000000E+00  0.00000000E+00  0.00000000E+00
  0.00000000E+00  0.00000000E+00  0.00000000E+00
  0.00000000E+00  0.00000000E+00  0.00000000E+00
  0.00000000E+00  0.00000000E+00  0.00000000E+00
  0.00000000E+00  0.00000000E+00  0.00000000E+00
  0.00000000E+00  0.00000000E+00  0.00000000E+00
  0.00000000E+00  0.00000000E+00  0.00000000E+00
  0.00000000E+00  0.00000000E+00  0.00000000E+00
  0.00000000E+00  0.00000000E+00  0.00000000E+00
  0.00000000E+00  0.00000000E+00  0.00000000E+00
  0.00000000E+00  0.00000000E+00  0.00000000E+00
  0.00000000E+00  0.00000000E+00  0.00000000E+00
  0.00000000E+00  0.00000000E+00  0.00000000E+00
  0.00000000E+00  0.00000000E+00  0.00000000E+00
  0.00000000E+00  0.00000000E+00  0.00000000E+00
  0.00000000E+00  0.00000000E+00  0.00000000E+00
  0.00000000E+00  0.00000000E+00  0.00000000E+00
  0.00000000E+00  0.00000000E+00  0.00000000E+00
  0.00000000E+00  0.00000000E+00  0.00000000E+00
  0.00000000E+00  0.00000000E+00  0.00000000E+00
  0.00000000E+00  0.00000000E+00  0.00000000E+00
  0.00000000E+00  0.00000000E+00  0.00000000E+00
  0.00000000E+00  0.00000000E+00  0.00000000E+00
  0.00000000E+00  0.00000000E+00  0.00000000E+00
  0.00000000E+00  0.00000000E+00  0.00000000E+00
  0.00000000E+00  0.00000000E+00  0.00000000E+00
  0.00000000E+00  0.00000000E+00  0.00000000E+00
  0.00000000E+00  0.00000000E+00  0.00000000E+00
  0.00000000E+00  0.00000000E+00  0.00000000E+00
  0.00000000E+00  0.00000000E+00  0.00000000E+00
  0.00000000E+00  0.00000000E+00  0.00000000E+00
  0.00000000E+00  0.00000000E+00  0.00000000E+00
  0.00000000E+00  0.00000000E+00  0.00000000E+00
  0.00000000E+00  0.00000000E+00  0.00000000E+00
  0.00000000E+00  0.00000000E+00  0.00000000E+00
  0.00000000E+00  0.00000000E+00  0.00000000E+00
  0.00000000E+00  0.00000000E+00  0.00000000E+00
  0.00000000E+00  0.00000000E+00  0.00000000E+00
  0.00000000E+00  0.00000000E+00  0.00000000E+00
  0.00000000E+00  0.00000000E+00  0.00000000E+00
  0.00000000E+00  0.00000000E+00  0.00000000E+00
  0.00000000E+00  0.00000000E+00  0.00000000E+00
  0.00000000E+00  0.00000000E+00  0.00000000E+00
  0.00000000E+00  0.00000000E+00  0.00000000E+00
  0.00000000E+00  0.00000000E+00  0.00000000E+00
  0.00000000E+00  0.00000000E+00  0.00000000E+00
  0.00000000E+00  0.00000000E+00  0.00000000E+00
  0.00000000E+00  0.00000000E+00  0.00000000E+00
  0.00000000E+00  0.00000000E+00  0.00000000E+00
  0.00000000E+00  0.00000000E+00  0.00000000E+00
  0.00000000E+00  0.00000000E+00  0.00000000E+00
  0.00000000E+00  0.00000000E+00  0.00000000E+00
  0.00000000E+00  0.00000000E+00  0.00000000E+00
  0.00000000E+00  0.00000000E+00  0.00000000E+00
  0.00000000E+00  0.00000000E+00  0.00000000E+00
  0.00000000E+00  0.00000000E+00  0.00000000E+00
  0.00000000E+00  0.00000000E+00  0.00000000E+00
  0.00000000E+00  0.00000000E+00  0.00000000E+00
  0.00000000E+00  0.00000000E+00  0.00000000E+00
  0.00000000E+00  0.00000000E+00  0.00000000E+00
  0.00000000E+00  0.00000000E+00  0.00000000E+00
  0.00000000E+00  0.00000000E+00  0.00000000E+00
  0.00000000E+00  0.00000000E+00  0.00000000E+00
  0.00000000E+00  0.00000000E+00  0.00000000E+00
  0.00000000E+00  0.00000000E+00  0.00000000E+00
  0.00000000E+00  0.00000000E+00  0.00000000E+00
  0.00000000E+00  0.00000000E+00  0.00000000E+00
  0.00000000E+00  0.00000000E+00  0.00000000E+00
  0.00000000E+00  0.00000000E+00  0.00000000E+00
  0.00000000E+00  0.00000000E+00  0.00000000E+00
  0.00000000E+00  0.00000000E+00  0.00000000E+00
  0.00000000E+00  0.00000000E+00  0.00000000E+00
  0.00000000E+00  0.00000000E+00  0.00000000E+00
  0.00000000E+00  0.00000000E+00  0.00000000E+00