Hf  O  F  H                             
   1.00000000000000     
    14.6106902099999996    0.0000000000000000    0.0000000000000000
    -6.0999520900000004   13.5497369200000009    0.0000000000000000
     0.0000000000000000    0.0000000000000000   32.4676209000000000
   Hf   O    F    H 
    80   160     1     1
Direct
  0.1044920505891246  0.1067406519722509  0.3671602913284223
  0.3726155415663371  0.1391332485826207  0.3649595866515333
  0.3729546675280072  0.4226859675351667  0.3725782324958524
  0.0738758280091620  0.3633996658138935  0.3752264117291940
  0.4122869087256447  0.2772923482006888  0.4539320509011867
  0.1977699853679021  0.3146856060970196  0.4496373096855134
  0.1806367771075789  0.0774582794243259  0.4590314973156640
  0.3996782437741083  0.0427041576690355  0.4631228412751769
  0.2326574179883751  0.4461051630980611  0.5410035035283495
  0.0158417387236581  0.4839806930655063  0.5386562405744114
  0.4996323571772849  0.2496946266988866  0.5460384233562882
  0.2183101141426263  0.2122503902353919  0.5484548679295237
  0.0528588836023622  0.1189048727873741  0.6276775004737108
  0.3341552003944050  0.1559290743268800  0.6261714264788802
  0.3208296479113799  0.4190200883797637  0.6329020540847156
  0.0353297919355784  0.3814537216096514  0.6369305761334182
  0.3656170993034841  0.2878721140170401  0.7203254045551614
  0.1578097072724716  0.3325520140663206  0.7115161694872008
  0.1302186096438981  0.0916013443799272  0.7194532209710697
  0.3573055474984999  0.0498325511134261  0.7200558550818783
  0.1043527858414384  0.6067638430666776  0.3670640624347663
  0.3724919496749977  0.6390071630026150  0.3648950629020211
  0.3730604079468792  0.9228796499167451  0.3725826662032737
  0.0739187160417451  0.8635324968053943  0.3752774582355125
  0.4122828768362870  0.7772700770163202  0.4537420803945225
  0.1977852701139732  0.8148464159707504  0.4496035729078008
  0.1804409110110516  0.5772442930683506  0.4588282101073480
  0.3997033487543586  0.5424839704733722  0.4630732508810418
  0.2331880521393157  0.9472548547703806  0.5413279046647287
  0.0161119998477257  0.9841020212253511  0.5387689844274287
  0.5006883760925400  0.7502282949398976  0.5455699873199061
  0.2170294301968624  0.7119472506482643  0.5477389367053360
  0.0525052102932903  0.6187580544709016  0.6276821510158616
  0.3335748664182939  0.6537619217313178  0.6234977887370917
  0.3205890126451541  0.9186876187193836  0.6319813484240033
  0.0356979305435816  0.8818517929764241  0.6371128733074751
  0.3597208701311563  0.7735122387488887  0.7142697213345297
  0.1572687597303468  0.8312435569686351  0.7114167848455064
  0.1278619853417646  0.5882814146776731  0.7197009678702984
  0.3590178569239946  0.5578950415653808  0.7217128930061815
  0.6044280904031843  0.1066799115175380  0.3670412827319821
  0.8725890539521755  0.1390266918524453  0.3649164503667537
  0.8729921222613006  0.4226921484065729  0.3725550503952056
  0.5737378859464978  0.3633266156256451  0.3752373990381499
  0.9122742921188577  0.2771350443364511  0.4537901534914426
  0.6976786976658977  0.3145481172316996  0.4495469640361694
  0.6805507333772481  0.0771543267333760  0.4588486605751772
  0.8996638396898924  0.0423017183306079  0.4630794073588645
  0.7323576790299446  0.4455765475316195  0.5411248881119467
  0.5158489428524486  0.4839010199307227  0.5388811311577817
  0.0008530458336046  0.2501160572357303  0.5455719683548205
  0.7172048192723058  0.2119547992867906  0.5478494916260312
  0.5531182774421805  0.1188130536371046  0.6276228205177734
  0.8337075271432741  0.1535655599781530  0.6235367143657455
  0.8208247985970254  0.4188394683356394  0.6329030323535151
  0.5345706323528712  0.3806499246045208  0.6374345503766585
  0.8602563820757710  0.2734792739403335  0.7139770086518645
  0.6603392540918449  0.3333696722737003  0.7114434509717550
  0.6297361376120052  0.0905815908382508  0.7194333286018307
  0.8613731211397581  0.0573284673363021  0.7217768763972850
  0.6043289829770584  0.6065711955759797  0.3670668244367407
  0.8726297266327785  0.6390422789049719  0.3649371741386019
  0.8730996938770846  0.9227412135716143  0.3725615636885966
  0.5738514690163785  0.8633742557249919  0.3751858703500774
  0.9122362157249175  0.7770789725737177  0.4538354282011374
  0.6977265388824144  0.8144741809106090  0.4494712441999762
  0.6803226091217234  0.5769626199451126  0.4589227020306139
  0.8994863800884727  0.5423177053742797  0.4630661595704541
  0.7326533291899723  0.9458066425228726  0.5410773089658816
  0.5162012882002173  0.9841132703245247  0.5386644780107716
  0.0007184762202089  0.7502909454087174  0.5456020775477983
  0.7171343452188444  0.7116624410678767  0.5479520036804166
  0.5525431026251703  0.6187104585200187  0.6277885189048155
  0.8335566408438512  0.6534877577262114  0.6235910186373335
  0.8208501909774115  0.9188964318506384  0.6329112701183643
  0.5352981541939259  0.8813243061130819  0.6371422417421211
  0.8601959907312055  0.7735145410666667  0.7140745068601411
  0.6599837244070484  0.8334960318087269  0.7115527057626230
  0.6300158498434238  0.5914217859905790  0.7195831966436272
  0.8609860606195191  0.5572764527538584  0.7218370250749092
  0.1288850312305140  0.0029376153935633  0.4054818757043820
  0.2164025378018662  0.3655680819486795  0.3862627537780858
  0.2418420694486654  0.1484964071120307  0.3460386444863557
  0.4151856366860322  0.2985668974981546  0.3851905161961316
  0.4478248724783636  0.0541744974923554  0.4013355614919847
  0.0294300575661777  0.2128529491813483  0.3518741841127904
  0.0181063923435737  0.4601151283830245  0.3441282581657527
  0.4402161938568179  0.1745696336669634  0.4922168725062370
  0.0372748779965060  0.0437768080461702  0.4784735893154021
  0.1529554858531012  0.1808212881908650  0.4215581914183171
  0.0587173569043479  0.3147799483402702  0.4348381707273735
  0.2391307292933595  0.4693610484013970  0.4726960248082168
  0.2647943102266809  0.2241725661660323  0.4846481222627421
  0.3559567985677886  0.3872925765433139  0.4404240848530269
  0.3325190484423478  0.1316443290000560  0.4278449666824200
  0.2582989655197300  0.3424890834393932  0.5794087153442354
  0.3560167797026379  0.2154006352521450  0.5647480036084221
  0.4747906731936266  0.3539164112408706  0.5075459362017924
  0.3776873320802857  0.4815411160574494  0.5232208018253849
  0.0578912231019346  0.1403144449394125  0.5593739194472480
  0.0823636116528268  0.3939912379833029  0.5725945835506324
  0.1765312937276112  0.0563668043550138  0.5278520663922703
  0.1509543182800240  0.3022345163139878  0.5140868760508611
  0.0835216997656214  0.0164151956520814  0.6649570130882032
  0.1740916910563453  0.3813578669413030  0.6517480846897056
  0.2921981111209960  0.0230726288650092  0.5953762182557110
  0.1974489916397152  0.1540250595988116  0.6094033237374314
  0.3774740026411409  0.3111078410794550  0.6473307173341550
  0.4008713311693873  0.0630142616612881  0.6586184323180823
  0.4937193379653028  0.2264957002379137  0.6148467429912235
  0.4687266599193617  0.4722133699867839  0.6023063861555082
  0.3793055345283610  0.1704143221697088  0.7582377203863053
  0.4915199584409340  0.0522238791298969  0.7407617727093985
  0.1038967171178342  0.1934573912595623  0.6810188779732939
  0.0160876775473433  0.3304578346939417  0.7003139787179511
  0.2016087604246663  0.4837257524407627  0.7348061878083203
  0.2110798680938625  0.2362200030176453  0.7426523517569918
  0.3167373656148925  0.3995306435189242  0.7016516591413950
  0.2960191816029852  0.1461493322442534  0.6900780630456820
  0.1287864191871073  0.5028420962895744  0.4053523094538311
  0.2164581849300570  0.8657459083106446  0.3862990332029723
  0.2417873282465924  0.6484972966966781  0.3459775328897653
  0.4152046600666556  0.7986091853196403  0.3851857712933593
  0.4477721104584577  0.5540114121564291  0.4013013688901229
  0.0294784619177504  0.7129131920918523  0.3518632680604259
  0.0182717573216149  0.9601825573111332  0.3441697619224195
  0.4408378572129916  0.6747625899414172  0.4918933701902765
  0.0370931998377082  0.5437493795771877  0.4783303657070760
  0.1527771439046519  0.6808507305980865  0.4214527782507400
  0.0586972951570773  0.8148467243372897  0.4348827577388409
  0.2392838697833086  0.9696637045116833  0.4728689240209945
  0.2645635630272379  0.7241712898357339  0.4843328088627958
  0.3560363410706177  0.8875170152192855  0.4404394811531386
  0.3323717596333524  0.6315121722376578  0.4277523050779982
  0.2586173617851205  0.8425797509824833  0.5790924307913702
  0.3557069926724177  0.7152902576313057  0.5634846418689055
  0.4752320308134797  0.8543450482746663  0.5072441847176086
  0.3779419867756563  0.9819956315676959  0.5233814934436934
  0.0569653252911777  0.6402408268593717  0.5589658077737047
  0.0826552166949127  0.8941091482853858  0.5727714755357611
  0.1763145235479532  0.5561560606115475  0.5275779127961637
  0.1510629914777831  0.8027648977987784  0.5140891126311075
  0.0802318233332446  0.5152158837927269  0.6651327211712386
  0.1748971487960426  0.8804047147031385  0.6519725298594412
  0.2923070993194328  0.5219442338455611  0.5946563427719842
  0.1961863128594357  0.6530351857666097  0.6083670405505470
  0.3768200308234608  0.8091581918244762  0.6466316357380805
  0.4008648946382322  0.5651362527089272  0.6588827977581685
  0.4940968251143393  0.7270404843915639  0.6140968267214706
  0.4688989302680512  0.9716302080770161  0.6021558488758755
  0.3876888542308952  0.6830356703458194  0.7521141179366077
  0.4934233086234692  0.5577198737117294  0.7395914070468020
  0.1032359128998638  0.6924060222269570  0.6813552590875138
  0.0164202907801830  0.8303150315570812  0.7002174697763318
  0.2020498540453608  0.9801414145222943  0.7345539061288128
  0.2146510863924795  0.7360367215876813  0.7422888784948830
  0.3189341310004154  0.8990362653937631  0.7023362560897882
  0.2860197591232265  0.6421594455044919  0.6855001569140184
  0.6287403808254370  0.0027179420969174  0.4053661205995785
  0.7163487574725858  0.3655834489984564  0.3862233894581983
  0.7418130305809469  0.1483467263240266  0.3459616715976231
  0.9152194548749935  0.2984766890141258  0.3851542889627795
  0.9478587038472664  0.0540049842567767  0.4013499485091589
  0.5293712095236452  0.2128891107647742  0.3518136468708101
  0.5180966602568462  0.4600698636294177  0.3440971282304535
  0.9410685865454362  0.1745227829753748  0.4919080638495242
  0.5373138630548551  0.0442907787949391  0.4783961481037246
  0.6529187151886493  0.1806948833573912  0.4213928024046524
  0.5585511392098567  0.3145203263618586  0.4348775338615272
  0.7390518058584733  0.4691599357363321  0.4726961926620762
  0.7645901236452889  0.2239728339549588  0.4843461096354214
  0.8559603936598005  0.3872169853033957  0.4403457778235912
  0.8323986736927772  0.1313615782450020  0.4277775510689472
  0.7576241558400091  0.3414201913858401  0.5795755295321485
  0.8556463972498832  0.2147586730186376  0.5633988988089194
  0.9750597741713370  0.3540132040758177  0.5072805355120747
  0.8773719519670404  0.4809811187786164  0.5231936151094511
  0.5568164569451498  0.1405028858362137  0.5592822679580592
  0.5819395670975412  0.3932525466037395  0.5730751304163093
  0.6762664824385264  0.0557151365608182  0.5275629629788303
  0.6507145971775513  0.3020714464954032  0.5140121832264251
  0.5787684033409506  0.0146537840363915  0.6656677589773206
  0.6747738577321811  0.3827505268163598  0.6520284801287782
  0.7930555638851620  0.0214772676398536  0.5946398991063332
  0.6958007698310028  0.1507308197528153  0.6080475828344629
  0.8769721190481339  0.3083933935285808  0.6461260634275802
  0.9011461489915391  0.0649396465049260  0.6589255830539676
  0.9941092067836270  0.2268334818521991  0.6138240178237940
  0.9685023603207616  0.4719939577085368  0.6022460634497034
  0.8906982527088834  0.1828727356799653  0.7511585899665639
  0.9923485404254150  0.0480759125391206  0.7404185791869378
  0.6076989563938615  0.1938586107777704  0.6806803829268230
  0.5159626720255228  0.3239354790502517  0.7008266923714521
  0.7044686722500885  0.4831202008351231  0.7347586200855910
  0.7150778089554982  0.2362306393184348  0.7428566191949788
  0.8189272418269856  0.3976370706943875  0.7013537927954558
  0.7849654047716720  0.1418544716825322  0.6853731026391006
  0.6285993443488584  0.5026567941107790  0.4053902288962542
  0.7164231785949193  0.8655081220925671  0.3862091976197692
  0.7417881917945343  0.6482997717950714  0.3460017652717483
  0.9152478527613543  0.7984937035421248  0.3851600607508269
  0.9477304518722545  0.5540071471071616  0.4013045992732771
  0.5292993571432049  0.7128550181886082  0.3518125567811112
  0.5181151305324297  0.9601215956183258  0.3441107240367941
  0.9409199104207226  0.6745857328508591  0.4919348790509317
  0.5371321020160758  0.5437869285138525  0.4784288486928389
  0.6527456964384791  0.6805796896094142  0.4214355944798334
  0.5586881207114127  0.8146824968022912  0.4347943828589282
  0.7392688543314032  0.9692202682007012  0.4727214478959754
  0.7644559579928782  0.7237980932168817  0.4844091391153535
  0.8559772273735617  0.8871767740253104  0.4403842876369951
  0.8323494242680410  0.6313884297569478  0.4277808504023325
  0.7576154334702098  0.8414255843527791  0.5795865115716825
  0.8555923843792725  0.7148008607747971  0.5634959925269428
  0.9750379928069790  0.8541573365012085  0.5073558649963453
  0.8777765284117968  0.9813234508394141  0.5233093243765378
  0.5568120590274217  0.6403628837124488  0.5591519428724231
  0.5826042660488028  0.8938069437136332  0.5727472003237331
  0.6759934558458982  0.5553971222836133  0.5276646153836549
  0.6508535052972821  0.8021558316940262  0.5139750288153903
  0.5781436644282576  0.5141098609916815  0.6660670755451477
  0.6748069952724922  0.8832651998950417  0.6520294282544313
  0.7928648446541230  0.5214222441367367  0.5946689505720572
  0.6955123829295666  0.6504118222825649  0.6081237731536081
  0.8774118452108294  0.8089580864538620  0.6462568941304374
  0.9006774126800849  0.5648239282882942  0.6589172866071650
  0.9942688169535895  0.7269862963052096  0.6139199044817086
  0.9687945177064660  0.9719945902146701  0.6024842986747918
  0.8908426565083108  0.6830314016847457  0.7510926352849944
  0.9909877656747719  0.5469117217633221  0.7409763547428020
  0.6087523147709767  0.6955505857448687  0.6803316681271887
  0.5164092677866363  0.8293387482821155  0.7007789892964637
  0.7040590014794067  0.9836350147300086  0.7349319971469715
  0.7157641299130193  0.7372336010933339  0.7427963970684686
  0.8184192516354170  0.8980396348429879  0.7014438773908812
  0.7850537060056877  0.6422951914404501  0.6853526567325258
  0.8429626418141706  0.0134725872219667  0.3354401210259315
  0.8429158208270957  0.5135166471200854  0.3354171130398269
  0.3427988515906394  0.5134661689841055  0.3354406732588609
  0.3428853496846396  0.0135778741963757  0.3354608885781737
  0.4163563115947949  0.3569728304661103  0.7716667610333310
  0.4113909300921427  0.1903440613409260  0.7848939403654817
 
  0.00000000E+00  0.00000000E+00  0.00000000E+00
  0.00000000E+00  0.00000000E+00  0.00000000E+00
  0.00000000E+00  0.00000000E+00  0.00000000E+00
  0.00000000E+00  0.00000000E+00  0.00000000E+00
  0.00000000E+00  0.00000000E+00  0.00000000E+00
  0.00000000E+00  0.00000000E+00  0.00000000E+00
  0.00000000E+00  0.00000000E+00  0.00000000E+00
  0.00000000E+00  0.00000000E+00  0.00000000E+00
  0.00000000E+00  0.00000000E+00  0.00000000E+00
  0.00000000E+00  0.00000000E+00  0.00000000E+00
  0.00000000E+00  0.00000000E+00  0.00000000E+00
  0.00000000E+00  0.00000000E+00  0.00000000E+00
  0.00000000E+00  0.00000000E+00  0.00000000E+00
  0.00000000E+00  0.00000000E+00  0.00000000E+00
  0.00000000E+00  0.00000000E+00  0.00000000E+00
  0.00000000E+00  0.00000000E+00  0.00000000E+00
  0.00000000E+00  0.00000000E+00  0.00000000E+00
  0.00000000E+00  0.00000000E+00  0.00000000E+00
  0.00000000E+00  0.00000000E+00  0.00000000E+00
  0.00000000E+00  0.00000000E+00  0.00000000E+00
  0.00000000E+00  0.00000000E+00  0.00000000E+00
  0.00000000E+00  0.00000000E+00  0.00000000E+00
  0.00000000E+00  0.00000000E+00  0.00000000E+00
  0.00000000E+00  0.00000000E+00  0.00000000E+00
  0.00000000E+00  0.00000000E+00  0.00000000E+00
  0.00000000E+00  0.00000000E+00  0.00000000E+00
  0.00000000E+00  0.00000000E+00  0.00000000E+00
  0.00000000E+00  0.00000000E+00  0.00000000E+00
  0.00000000E+00  0.00000000E+00  0.00000000E+00
  0.00000000E+00  0.00000000E+00  0.00000000E+00
  0.00000000E+00  0.00000000E+00  0.00000000E+00
  0.00000000E+00  0.00000000E+00  0.00000000E+00
  0.00000000E+00  0.00000000E+00  0.00000000E+00
  0.00000000E+00  0.00000000E+00  0.00000000E+00
  0.00000000E+00  0.00000000E+00  0.00000000E+00
  0.00000000E+00  0.00000000E+00  0.00000000E+00
  0.00000000E+00  0.00000000E+00  0.00000000E+00
  0.00000000E+00  0.00000000E+00  0.00000000E+00
  0.00000000E+00  0.00000000E+00  0.00000000E+00
  0.00000000E+00  0.00000000E+00  0.00000000E+00
  0.00000000E+00  0.00000000E+00  0.00000000E+00
  0.00000000E+00  0.00000000E+00  0.00000000E+00
  0.00000000E+00  0.00000000E+00  0.00000000E+00
  0.00000000E+00  0.00000000E+00  0.00000000E+00
  0.00000000E+00  0.00000000E+00  0.00000000E+00
  0.00000000E+00  0.00000000E+00  0.00000000E+00
  0.00000000E+00  0.00000000E+00  0.00000000E+00
  0.00000000E+00  0.00000000E+00  0.00000000E+00
  0.00000000E+00  0.00000000E+00  0.00000000E+00
  0.00000000E+00  0.00000000E+00  0.00000000E+00
  0.00000000E+00  0.00000000E+00  0.00000000E+00
  0.00000000E+00  0.00000000E+00  0.00000000E+00
  0.00000000E+00  0.00000000E+00  0.00000000E+00
  0.00000000E+00  0.00000000E+00  0.00000000E+00
  0.00000000E+00  0.00000000E+00  0.00000000E+00
  0.00000000E+00  0.00000000E+00  0.00000000E+00
  0.00000000E+00  0.00000000E+00  0.00000000E+00
  0.00000000E+00  0.00000000E+00  0.00000000E+00
  0.00000000E+00  0.00000000E+00  0.00000000E+00
  0.00000000E+00  0.00000000E+00  0.00000000E+00
  0.00000000E+00  0.00000000E+00  0.00000000E+00
  0.00000000E+00  0.00000000E+00  0.00000000E+00
  0.00000000E+00  0.00000000E+00  0.00000000E+00
  0.00000000E+00  0.00000000E+00  0.00000000E+00
  0.00000000E+00  0.00000000E+00  0.00000000E+00
  0.00000000E+00  0.00000000E+00  0.00000000E+00
  0.00000000E+00  0.00000000E+00  0.00000000E+00
  0.00000000E+00  0.00000000E+00  0.00000000E+00
  0.00000000E+00  0.00000000E+00  0.00000000E+00
  0.00000000E+00  0.00000000E+00  0.00000000E+00
  0.00000000E+00  0.00000000E+00  0.00000000E+00
  0.00000000E+00  0.00000000E+00  0.00000000E+00
  0.00000000E+00  0.00000000E+00  0.00000000E+00
  0.00000000E+00  0.00000000E+00  0.00000000E+00
  0.00000000E+00  0.00000000E+00  0.00000000E+00
  0.00000000E+00  0.00000000E+00  0.00000000E+00
  0.00000000E+00  0.00000000E+00  0.00000000E+00
  0.00000000E+00  0.00000000E+00  0.00000000E+00
  0.00000000E+00  0.00000000E+00  0.00000000E+00
  0.00000000E+00  0.00000000E+00  0.00000000E+00
  0.00000000E+00  0.00000000E+00  0.00000000E+00
  0.00000000E+00  0.00000000E+00  0.00000000E+00
  0.00000000E+00  0.00000000E+00  0.00000000E+00
  0.00000000E+00  0.00000000E+00  0.00000000E+00
  0.00000000E+00  0.00000000E+00  0.00000000E+00
  0.00000000E+00  0.00000000E+00  0.00000000E+00
  0.00000000E+00  0.00000000E+00  0.00000000E+00
  0.00000000E+00  0.00000000E+00  0.00000000E+00
  0.00000000E+00  0.00000000E+00  0.00000000E+00
  0.00000000E+00  0.00000000E+00  0.00000000E+00
  0.00000000E+00  0.00000000E+00  0.00000000E+00
  0.00000000E+00  0.00000000E+00  0.00000000E+00
  0.00000000E+00  0.00000000E+00  0.00000000E+00
  0.00000000E+00  0.00000000E+00  0.00000000E+00
  0.00000000E+00  0.00000000E+00  0.00000000E+00
  0.00000000E+00  0.00000000E+00  0.00000000E+00
  0.00000000E+00  0.00000000E+00  0.00000000E+00
  0.00000000E+00  0.00000000E+00  0.00000000E+00
  0.00000000E+00  0.00000000E+00  0.00000000E+00
  0.00000000E+00  0.00000000E+00  0.00000000E+00
  0.00000000E+00  0.00000000E+00  0.00000000E+00
  0.00000000E+00  0.00000000E+00  0.00000000E+00
  0.00000000E+00  0.00000000E+00  0.00000000E+00
  0.00000000E+00  0.00000000E+00  0.00000000E+00
  0.00000000E+00  0.00000000E+00  0.00000000E+00
  0.00000000E+00  0.00000000E+00  0.00000000E+00
  0.00000000E+00  0.00000000E+00  0.00000000E+00
  0.00000000E+00  0.00000000E+00  0.00000000E+00
  0.00000000E+00  0.00000000E+00  0.00000000E+00
  0.00000000E+00  0.00000000E+00  0.00000000E+00
  0.00000000E+00  0.00000000E+00  0.00000000E+00
  0.00000000E+00  0.00000000E+00  0.00000000E+00
  0.00000000E+00  0.00000000E+00  0.00000000E+00
  0.00000000E+00  0.00000000E+00  0.00000000E+00
  0.00000000E+00  0.00000000E+00  0.00000000E+00
  0.00000000E+00  0.00000000E+00  0.00000000E+00
  0.00000000E+00  0.00000000E+00  0.00000000E+00
  0.00000000E+00  0.00000000E+00  0.00000000E+00
  0.00000000E+00  0.00000000E+00  0.00000000E+00
  0.00000000E+00  0.00000000E+00  0.00000000E+00
  0.00000000E+00  0.00000000E+00  0.00000000E+00
  0.00000000E+00  0.00000000E+00  0.00000000E+00
  0.00000000E+00  0.00000000E+00  0.00000000E+00
  0.00000000E+00  0.00000000E+00  0.00000000E+00
  0.00000000E+00  0.00000000E+00  0.00000000E+00
  0.00000000E+00  0.00000000E+00  0.00000000E+00
  0.00000000E+00  0.00000000E+00  0.00000000E+00
  0.00000000E+00  0.00000000E+00  0.00000000E+00
  0.00000000E+00  0.00000000E+00  0.00000000E+00
  0.00000000E+00  0.00000000E+00  0.00000000E+00
  0.00000000E+00  0.00000000E+00  0.00000000E+00
  0.00000000E+00  0.00000000E+00  0.00000000E+00
  0.00000000E+00  0.00000000E+00  0.00000000E+00
  0.00000000E+00  0.00000000E+00  0.00000000E+00
  0.00000000E+00  0.00000000E+00  0.00000000E+00
  0.00000000E+00  0.00000000E+00  0.00000000E+00
  0.00000000E+00  0.00000000E+00  0.00000000E+00
  0.00000000E+00  0.00000000E+00  0.00000000E+00
  0.00000000E+00  0.00000000E+00  0.00000000E+00
  0.00000000E+00  0.00000000E+00  0.00000000E+00
  0.00000000E+00  0.00000000E+00  0.00000000E+00
  0.00000000E+00  0.00000000E+00  0.00000000E+00
  0.00000000E+00  0.00000000E+00  0.00000000E+00
  0.00000000E+00  0.00000000E+00  0.00000000E+00
  0.00000000E+00  0.00000000E+00  0.00000000E+00
  0.00000000E+00  0.00000000E+00  0.00000000E+00
  0.00000000E+00  0.00000000E+00  0.00000000E+00
  0.00000000E+00  0.00000000E+00  0.00000000E+00
  0.00000000E+00  0.00000000E+00  0.00000000E+00
  0.00000000E+00  0.00000000E+00  0.00000000E+00
  0.00000000E+00  0.00000000E+00  0.00000000E+00
  0.00000000E+00  0.00000000E+00  0.00000000E+00
  0.00000000E+00  0.00000000E+00  0.00000000E+00
  0.00000000E+00  0.00000000E+00  0.00000000E+00
  0.00000000E+00  0.00000000E+00  0.00000000E+00
  0.00000000E+00  0.00000000E+00  0.00000000E+00
  0.00000000E+00  0.00000000E+00  0.00000000E+00
  0.00000000E+00  0.00000000E+00  0.00000000E+00
  0.00000000E+00  0.00000000E+00  0.00000000E+00
  0.00000000E+00  0.00000000E+00  0.00000000E+00
  0.00000000E+00  0.00000000E+00  0.00000000E+00
  0.00000000E+00  0.00000000E+00  0.00000000E+00
  0.00000000E+00  0.00000000E+00  0.00000000E+00
  0.00000000E+00  0.00000000E+00  0.00000000E+00
  0.00000000E+00  0.00000000E+00  0.00000000E+00
  0.00000000E+00  0.00000000E+00  0.00000000E+00
  0.00000000E+00  0.00000000E+00  0.00000000E+00
  0.00000000E+00  0.00000000E+00  0.00000000E+00
  0.00000000E+00  0.00000000E+00  0.00000000E+00
  0.00000000E+00  0.00000000E+00  0.00000000E+00
  0.00000000E+00  0.00000000E+00  0.00000000E+00
  0.00000000E+00  0.00000000E+00  0.00000000E+00
  0.00000000E+00  0.00000000E+00  0.00000000E+00
  0.00000000E+00  0.00000000E+00  0.00000000E+00
  0.00000000E+00  0.00000000E+00  0.00000000E+00
  0.00000000E+00  0.00000000E+00  0.00000000E+00
  0.00000000E+00  0.00000000E+00  0.00000000E+00
  0.00000000E+00  0.00000000E+00  0.00000000E+00
  0.00000000E+00  0.00000000E+00  0.00000000E+00
  0.00000000E+00  0.00000000E+00  0.00000000E+00
  0.00000000E+00  0.00000000E+00  0.00000000E+00
  0.00000000E+00  0.00000000E+00  0.00000000E+00
  0.00000000E+00  0.00000000E+00  0.00000000E+00
  0.00000000E+00  0.00000000E+00  0.00000000E+00
  0.00000000E+00  0.00000000E+00  0.00000000E+00
  0.00000000E+00  0.00000000E+00  0.00000000E+00
  0.00000000E+00  0.00000000E+00  0.00000000E+00
  0.00000000E+00  0.00000000E+00  0.00000000E+00
  0.00000000E+00  0.00000000E+00  0.00000000E+00
  0.00000000E+00  0.00000000E+00  0.00000000E+00
  0.00000000E+00  0.00000000E+00  0.00000000E+00
  0.00000000E+00  0.00000000E+00  0.00000000E+00
  0.00000000E+00  0.00000000E+00  0.00000000E+00
  0.00000000E+00  0.00000000E+00  0.00000000E+00
  0.00000000E+00  0.00000000E+00  0.00000000E+00
  0.00000000E+00  0.00000000E+00  0.00000000E+00
  0.00000000E+00  0.00000000E+00  0.00000000E+00
  0.00000000E+00  0.00000000E+00  0.00000000E+00
  0.00000000E+00  0.00000000E+00  0.00000000E+00
  0.00000000E+00  0.00000000E+00  0.00000000E+00
  0.00000000E+00  0.00000000E+00  0.00000000E+00
  0.00000000E+00  0.00000000E+00  0.00000000E+00
  0.00000000E+00  0.00000000E+00  0.00000000E+00
  0.00000000E+00  0.00000000E+00  0.00000000E+00
  0.00000000E+00  0.00000000E+00  0.00000000E+00
  0.00000000E+00  0.00000000E+00  0.00000000E+00
  0.00000000E+00  0.00000000E+00  0.00000000E+00
  0.00000000E+00  0.00000000E+00  0.00000000E+00
  0.00000000E+00  0.00000000E+00  0.00000000E+00
  0.00000000E+00  0.00000000E+00  0.00000000E+00
  0.00000000E+00  0.00000000E+00  0.00000000E+00
  0.00000000E+00  0.00000000E+00  0.00000000E+00
  0.00000000E+00  0.00000000E+00  0.00000000E+00
  0.00000000E+00  0.00000000E+00  0.00000000E+00
  0.00000000E+00  0.00000000E+00  0.00000000E+00
  0.00000000E+00  0.00000000E+00  0.00000000E+00
  0.00000000E+00  0.00000000E+00  0.00000000E+00
  0.00000000E+00  0.00000000E+00  0.00000000E+00
  0.00000000E+00  0.00000000E+00  0.00000000E+00
  0.00000000E+00  0.00000000E+00  0.00000000E+00
  0.00000000E+00  0.00000000E+00  0.00000000E+00
  0.00000000E+00  0.00000000E+00  0.00000000E+00
  0.00000000E+00  0.00000000E+00  0.00000000E+00
  0.00000000E+00  0.00000000E+00  0.00000000E+00
  0.00000000E+00  0.00000000E+00  0.00000000E+00
  0.00000000E+00  0.00000000E+00  0.00000000E+00
  0.00000000E+00  0.00000000E+00  0.00000000E+00
  0.00000000E+00  0.00000000E+00  0.00000000E+00
  0.00000000E+00  0.00000000E+00  0.00000000E+00
  0.00000000E+00  0.00000000E+00  0.00000000E+00
  0.00000000E+00  0.00000000E+00  0.00000000E+00
  0.00000000E+00  0.00000000E+00  0.00000000E+00
  0.00000000E+00  0.00000000E+00  0.00000000E+00
  0.00000000E+00  0.00000000E+00  0.00000000E+00
  0.00000000E+00  0.00000000E+00  0.00000000E+00
  0.00000000E+00  0.00000000E+00  0.00000000E+00
  0.00000000E+00  0.00000000E+00  0.00000000E+00
  0.00000000E+00  0.00000000E+00  0.00000000E+00
  0.00000000E+00  0.00000000E+00  0.00000000E+00
  0.00000000E+00  0.00000000E+00  0.00000000E+00
  0.00000000E+00  0.00000000E+00  0.00000000E+00
  0.00000000E+00  0.00000000E+00  0.00000000E+00
