Hf  O  F  H                             
   1.00000000000000     
    14.6106902099999996    0.0000000000000000    0.0000000000000000
    -6.0999520900000004   13.5497369200000009    0.0000000000000000
     0.0000000000000000    0.0000000000000000   32.4676209000000000
   Hf   O    F    H 
    80   160     5     5
Selective dynamics
Direct
  0.1048163482780637  0.1061689485554993  0.3670806074368045   F   F   F
  0.3732623612619577  0.1389233751263106  0.3650114703045588   F   F   F
  0.3737743268675473  0.4225943611162037  0.3725879111148558   F   F   F
  0.0744046443694870  0.3629124597055267  0.3752116716380627   F   F   F
  0.4129342004055374  0.2772409621071787  0.4538525553315154   F   F   F
  0.1984387749950471  0.3145780215635341  0.4495369052433418   F   F   F
  0.1809177729260796  0.0772327211353740  0.4589466093279384   F   F   F
  0.3999867945161597  0.0425280634895131  0.4631158645196578   F   F   F
  0.2330362736705780  0.4462873388393405  0.5411192918665648   F   F   F
  0.0165350607331476  0.4845897707658224  0.5388003781022306   F   F   F
  0.5009418603962672  0.2506439939056762  0.5456773192149740   F   F   F
  0.2175425423202526  0.2125169762336583  0.5479620080509164   F   F   F
  0.0534073085102990  0.1198289010652749  0.6278758878871844   T   T   T
  0.3346566010198573  0.1575869703175809  0.6253772527500221   T   T   T
  0.3223783362744514  0.4184966715775794  0.6319456588288032   T   T   T
  0.0341747993053747  0.3838497791579271  0.6360007105660641   T   T   T
  0.3759767670686753  0.2905464238942145  0.7167889886028252   T   T   T
  0.1527501805930251  0.3338643364438735  0.7096796916465180   T   T   T
  0.1279385961602877  0.0817300813026937  0.7191790319656636   T   T   T
  0.3602453616335110  0.0526390679377275  0.7204160680118434   T   T   T
  0.1048163482439719  0.6061689492935187  0.3670806074368045   F   F   F
  0.3732623445892003  0.6389233360111604  0.3650114703045588   F   F   F
  0.3737743272097589  0.9225943611162037  0.3725879111148558   F   F   F
  0.0744046077524629  0.8629124597055267  0.3752116716380627   F   F   F
  0.4129341844172032  0.7772409229920285  0.4538525553315154   F   F   F
  0.1984387746528355  0.8145780215635341  0.4495369052433418   F   F   F
  0.1809177725838680  0.5772327211353740  0.4589466093279384   F   F   F
  0.3999867578991356  0.5425280634895131  0.4631158645196578   F   F   F
  0.2330362380461040  0.9462873395773670  0.5411192918665648   F   F   F
  0.0165350603909360  0.9845897707658224  0.5388003781022306   F   F   F
  0.5009418600540485  0.7506439939056762  0.5456773192149740   F   F   F
  0.2175425419780339  0.7125169762336583  0.5479620080509164   F   F   F
  0.0539974512535793  0.6200093847551511  0.6283015253808567   T   T   T
  0.3345753037170910  0.6535455909465819  0.6234643842142299   T   T   T
  0.3166209827771032  0.9192468962879293  0.6326120068631511   T   T   T
  0.0386636468540192  0.8824366642545728  0.6362612479947123   T   T   T
  0.3594749032321418  0.7777875840947006  0.7116492541559296   T   T   T
  0.1554689815119953  0.8281618187743270  0.7171175260091970   T   T   T
  0.1286685964844304  0.5883335207548188  0.7202744024053717   T   T   T
  0.3573111568597493  0.5494681612452991  0.7196601348614782   T   T   T
  0.6048163664154629  0.1061689485554993  0.3670806074368045   F   F   F
  0.8732623793993639  0.1389233751263106  0.3650114703045588   F   F   F
  0.8737743087301411  0.4225943611162037  0.3725879111148558   F   F   F
  0.5744046262320808  0.3629124597055267  0.3752116716380627   F   F   F
  0.9129342185429365  0.2772409621071787  0.4538525553315154   F   F   F
  0.6984387568576409  0.3145780215635341  0.4495369052433418   F   F   F
  0.6809177910634858  0.0772327211353740  0.4589466093279384   F   F   F
  0.8999867763787535  0.0425280634895131  0.4631158645196578   F   F   F
  0.7330362555331718  0.4462873388393405  0.5411192918665648   F   F   F
  0.5165350788705538  0.4845897707658224  0.5388003781022306   F   F   F
  0.0009418785336663  0.2506439939056762  0.5456773192149740   F   F   F
  0.7175425241828464  0.2125169762336583  0.5479620080509164   F   F   F
  0.5539190573049326  0.1203002886921609  0.6284093907832211   T   T   T
  0.8340534938259592  0.1540015046598808  0.6234782673146821   T   T   T
  0.8165918680922956  0.4164069490450666  0.6334820064937566   T   T   T
  0.5404390910624054  0.3845704615066969  0.6373734586572101   T   T   T
  0.8602220584586260  0.2709126448056403  0.7136445423348946   T   T   T
  0.6587358045183875  0.3287540862268832  0.7176670339788485   T   T   T
  0.6294732351446929  0.0886409182711924  0.7200223176294250   T   T   T
  0.8628820636429235  0.0565265519310462  0.7213086230679554   T   T   T
  0.6048163663813710  0.6061689492935187  0.3670806074368045   F   F   F
  0.8732623627266065  0.6389233360111604  0.3650114703045588   F   F   F
  0.8737743090723527  0.9225943611162037  0.3725879111148558   F   F   F
  0.5744046258898692  0.8629124597055267  0.3752116716380627   F   F   F
  0.9129341662797970  0.7772409229920285  0.4538525553315154   F   F   F
  0.6984387565154293  0.8145780215635341  0.4495369052433418   F   F   F
  0.6809177907212671  0.5772327211353740  0.4589466093279384   F   F   F
  0.8999867760365419  0.5425280634895131  0.4631158645196578   F   F   F
  0.7330362561835102  0.9462873395773670  0.5411192918665648   F   F   F
  0.5165350422535298  0.9845897707658224  0.5388003781022306   F   F   F
  0.0009418419166423  0.7506439939056762  0.5456773192149740   F   F   F
  0.7175425238406277  0.7125169762336583  0.5479620080509164   F   F   F
  0.5571448828866110  0.6210296674257250  0.6312568916478671   T   T   T
  0.8336729688791381  0.6535090358895661  0.6239397518585805   T   T   T
  0.8168642984277478  0.9187302192184458  0.6331937892681402   T   T   T
  0.5359117650955177  0.8830343243419778  0.6368525669499896   T   T   T
  0.8680218202700960  0.7839910107470295  0.7105870838903350   T   T   T
  0.6533014711034362  0.8355601018821951  0.7163149922611572   T   T   T
  0.6300367123283795  0.5851224694947847  0.7254604781847166   T   T   T
  0.8609395148890117  0.5511368015892729  0.7201294484924529   T   T   T
  0.1288949438227718  0.0023484482531160  0.4055195577942712   F   F   F
  0.2171202666773340  0.3655754167956218  0.3861183836848383   F   F   F
  0.2422423258657034  0.1476133695295374  0.3459273718759022   F   F   F
  0.4156474651992070  0.2981851794507051  0.3852004440830470   F   F   F
  0.4483239664366039  0.0539867416112187  0.4013417443530614   F   F   F
  0.0299853079393912  0.2126836445618636  0.3518312443090039   F   F   F
  0.0187047650824397  0.4596688007873126  0.3441004418035476   F   F   F
  0.4407067360639800  0.1746064507354319  0.4921106331816247   F   F   F
  0.0377163536368030  0.0445207962015530  0.4784636998764498   F   F   F
  0.1535412084935999  0.1806685489506918  0.4213457166182479   F   F   F
  0.0591853102326070  0.3140539111662690  0.4348011568349932   F   F   F
  0.2394803091811184  0.4691793816761418  0.4727388595325124   F   F   F
  0.2650519433922724  0.2243375790944881  0.4843499474579644   F   F   F
  0.3566567922348511  0.3873940024069498  0.4403535575654089   F   F   F
  0.3328108427282856  0.1313181029643218  0.4278359404830923   F   F   F
  0.2581866711651202  0.3423726168552079  0.5795646223034439   F   F   F
  0.3560439348708542  0.2157748010357707  0.5635848618646406   F   F   F
  0.4760509698249393  0.3547283002155908  0.5072056726829643   F   F   F
  0.3780098865293127  0.4813491730878567  0.5232635452510195   F   F   F
  0.0572094665586604  0.1406956991309585  0.5591678785740655   F   F   F
  0.0828115205656985  0.3944539472283708  0.5727661560197674   F   F   F
  0.1768614834644140  0.0563424554666554  0.5276318489661804   F   F   F
  0.1512854977469189  0.3024251718091691  0.5140239261879529   F   F   F
  0.0840235782854626  0.0165475973065304  0.6644274538939698   T   T   T
  0.1733654423943342  0.3831550765937782  0.6507607228391649   T   T   T
  0.2913580058617108  0.0235626834911772  0.5950645904974355   T   T   T
  0.1974596761479335  0.1550520618474127  0.6090254616652085   T   T   T
  0.3804826348518357  0.3128392125717364  0.6458901896213102   T   T   T
  0.3985888374444425  0.0639336008066089  0.6590120973007254   T   T   T
  0.4938046886605355  0.2264975599394156  0.6143150303065439   T   T   T
  0.4721806038194946  0.4758383478684180  0.6027993647204419   T   T   T
  0.3958229527712798  0.1796971554463173  0.7550602654753085   T   T   T
  0.4900378182539626  0.0471682107279061  0.7408152711911585   T   T   T
  0.1101728434703685  0.1937394720261904  0.6827015972723363   T   T   T
  0.0170113824261217  0.3344795175923101  0.6990828947489842   T   T   T
  0.2003859409344072  0.4816418610269457  0.7348442855867945   T   T   T
  0.1982075596420984  0.2315274470607310  0.7490811446023348   T   T   T
  0.3120412805265310  0.3946244138077868  0.7000115457808745   T   T   T
  0.2940910804735640  0.1515898959171253  0.6900169571401945   T   T   T
  0.1288949434805602  0.5023484482531160  0.4055195577942712   F   F   F
  0.2171202300603028  0.8655754167956218  0.3861183836848383   F   F   F
  0.2422423265160418  0.6476133702675639  0.3459273718759022   F   F   F
  0.4156474648569883  0.7981851794507051  0.3852004440830470   F   F   F
  0.4483239667788155  0.5539867416112187  0.4013417443530614   F   F   F
  0.0299853079052994  0.7126836452998830  0.3518312443090039   F   F   F
  0.0187047647402281  0.9596688007873126  0.3441004418035476   F   F   F
  0.4407066994469560  0.6746064507354319  0.4921106331816247   F   F   F
  0.0377163539790217  0.5445207962015530  0.4784636998764498   F   F   F
  0.1535412081513883  0.6806685489506918  0.4213457166182479   F   F   F
  0.0591853098903883  0.8140539111662690  0.4348011568349932   F   F   F
  0.2394803088388997  0.9691793816761418  0.4727388595325124   F   F   F
  0.2650519437344911  0.7243375790944881  0.4843499474579644   F   F   F
  0.3566567918926324  0.8873940024069498  0.4403535575654089   F   F   F
  0.3328108423860741  0.6313181029643218  0.4278359404830923   F   F   F
  0.2581866708229015  0.8423726168552079  0.5795646223034439   F   F   F
  0.3560439345286426  0.7157748010357707  0.5635848618646406   F   F   F
  0.4760509541447320  0.8547282618384600  0.5072056726829643   F   F   F
  0.3780098499122886  0.9813491730878567  0.5232635452510195   F   F   F
  0.0572094306260666  0.6406956991309585  0.5591678785740655   F   F   F
  0.0828115209079101  0.8944539472283708  0.5727661560197674   F   F   F
  0.1768614841147524  0.5563424562046748  0.5276318489661804   F   F   F
  0.1512854611298948  0.8024251718091691  0.5140239261879529   F   F   F
  0.0816222418184277  0.5171713948503955  0.6652681062388613   T   T   T
  0.1745530565629576  0.8823106035607438  0.6532562174633498   T   T   T
  0.2929666998834797  0.5224599431478465  0.5943840287408008   T   T   T
  0.1968724107886644  0.6535381590368160  0.6087237606331378   T   T   T
  0.3732322332576480  0.8092600850380034  0.6463700800717167   T   T   T
  0.4014960063639920  0.5634575519231274  0.6584817242052020   T   T   T
  0.4944202275230585  0.7270791139179751  0.6152130986509541   T   T   T
  0.4689241432217987  0.9732725395031294  0.6023599060590403   T   T   T
  0.3943270495653591  0.6831336973761764  0.7526762752347785   T   T   T
  0.4848107819801439  0.5477660145688162  0.7366835789448148   T   T   T
  0.1025937709249673  0.6935107724269433  0.6828971864337002   T   T   T
  0.0158564439828179  0.8320914270689694  0.6989866400832243   T   T   T
  0.2049290106762515  0.9877073886570267  0.7339261000770109   T   T   T
  0.2216420109573724  0.7299485269921018  0.7420859105399692   T   T   T
  0.3170229566741461  0.8977799168290197  0.7041262548669086   T   T   T
  0.2903121274150005  0.6414030689788438  0.6863100450567525   T   T   T
  0.6288949256853655  0.0023484482531160  0.4055195577942712   F   F   F
  0.7171202485399277  0.3655754167956218  0.3861183836848383   F   F   F
  0.7422423440031096  0.1476133695295374  0.3459273718759022   F   F   F
  0.9156474470618008  0.2981851794507051  0.3852004440830470   F   F   F
  0.9483239482991976  0.0539867416112187  0.4013417443530614   F   F   F
  0.5299853260767975  0.2126836445618636  0.3518312443090039   F   F   F
  0.5187047825354156  0.4596688007873126  0.3441004418035476   F   F   F
  0.9407067179265738  0.1746064507354319  0.4921106331816247   F   F   F
  0.5377163717742093  0.0445207962015530  0.4784636998764498   F   F   F
  0.6535411903561936  0.1806685489506918  0.4213457166182479   F   F   F
  0.5591852920952007  0.3140539111662690  0.4348011568349932   F   F   F
  0.7394803273185175  0.4691793816761418  0.4727388595325124   F   F   F
  0.7650519615296787  0.2243375790944881  0.4843499474579644   F   F   F
  0.8566568103722574  0.3873940024069498  0.4403535575654089   F   F   F
  0.8328108608656919  0.1313181029643218  0.4278359404830923   F   F   F
  0.7581866530277139  0.3423726168552079  0.5795646223034439   F   F   F
  0.8560439167334479  0.2157748010357707  0.5635848618646406   F   F   F
  0.9760509516875331  0.3547283002155908  0.5072056726829643   F   F   F
  0.8780098683919064  0.4813491730878567  0.5232635452510195   F   F   F
  0.5572094484212542  0.1406956991309585  0.5591678785740655   F   F   F
  0.5828115387031048  0.3944539472283708  0.5727661560197674   F   F   F
  0.6768614653270077  0.0563424554666554  0.5276318489661804   F   F   F
  0.6512854796095198  0.3024251718091691  0.5140239261879529   F   F   F
  0.5793698610015093  0.0159243294092942  0.6654967601547982   T   T   T
  0.6756438845066571  0.3812367053692297  0.6529692827427866   T   T   T
  0.7929841042730366  0.0222477343512195  0.5946028758846110   T   T   T
  0.6963838476304431  0.1527558302531833  0.6083782028906637   T   T   T
  0.8761294444478115  0.3088313574927251  0.6459381289537744   T   T   T
  0.9032883876122819  0.0641803922849225  0.6587931444731628   T   T   T
  0.9948482471775515  0.2276569189184593  0.6143287408171031   T   T   T
  0.9699083905732773  0.4736049819911817  0.6022884054796487   T   T   T
  0.9019606324109424  0.1840363460916387  0.7490986459341722   T   T   T
  0.9902143371494795  0.0373415223763481  0.7396160853334467   T   T   T
  0.6050167050556547  0.1932649118993479  0.6826056338138389   T   T   T
  0.5172635019136004  0.3290681977122897  0.6991382675811458   T   T   T
  0.7096613383737739  0.4833545792642863  0.7313279628134013   T   T   T
  0.7228857406229938  0.2288727620575801  0.7426579040964343   T   T   T
  0.8213105776580463  0.3969492943014236  0.7038633564558954   T   T   T
  0.7870795987768124  0.1402515308619553  0.6846001163548119   T   T   T
  0.6288949253431539  0.5023484482531160  0.4055195577942712   F   F   F
  0.7171202481977090  0.8655754167956218  0.3861183836848383   F   F   F
  0.7422423439690178  0.6476133702675639  0.3459273718759022   F   F   F
  0.9156474467195821  0.7981851794507051  0.3852004440830470   F   F   F
  0.9483239486414092  0.5539867416112187  0.4013417443530614   F   F   F
  0.5299853260427057  0.7126836452998830  0.3518312443090039   F   F   F
  0.5187047828776272  0.9596688007873126  0.3441004418035476   F   F   F
  0.9407067175843622  0.6746064507354319  0.4921106331816247   F   F   F
  0.5377163358416155  0.5445207962015530  0.4784636998764498   F   F   F
  0.6535411900139820  0.6806685489506918  0.4213457166182479   F   F   F
  0.5591852917529891  0.8140539111662690  0.4348011568349932   F   F   F
  0.7394802907014935  0.9691793816761418  0.4727388595325124   F   F   F
  0.7650519255970849  0.7243375790944881  0.4843499474579644   F   F   F
  0.8566568100300387  0.8873940024069498  0.4403535575654089   F   F   F
  0.8328108605234732  0.6313181029643218  0.4278359404830923   F   F   F
  0.7581866526854952  0.8423726168552079  0.5795646223034439   F   F   F
  0.8560439163912363  0.7157748010357707  0.5635848618646406   F   F   F
  0.9760509360073257  0.8547282618384600  0.5072056726829643   F   F   F
  0.8780098680496948  0.9813491730878567  0.5232635452510195   F   F   F
  0.5572094487634729  0.6406956991309585  0.5591678785740655   F   F   F
  0.5828115383608861  0.8944539472283708  0.5727661560197674   F   F   F
  0.6768614659773462  0.5563424562046748  0.5276318489661804   F   F   F
  0.6512854792673011  0.8024251718091691  0.5140239261879529   F   F   F
  0.5816447413060508  0.5154781106261018  0.6672145777958024   T   T   T
  0.6730122436397769  0.8852496425060773  0.6525458244736742   T   T   T
  0.7920546169860149  0.5220738491465043  0.5948939925160822   T   T   T
  0.6974205601845306  0.6538625191081868  0.6091922185593540   T   T   T
  0.8777369248580535  0.8109223536331307  0.6454594968617391   T   T   T
  0.9000265097010149  0.5625055567790505  0.6586469846573911   T   T   T
  0.9939792852158561  0.7269514475132086  0.6143146107733604   T   T   T
  0.9705985099687080  0.9739409907638394  0.6022923947837781   T   T   T
  0.8978531524589308  0.6861093654729217  0.7527516385004209   T   T   T
  0.9918116559002992  0.5485267570906468  0.7419524663922392   T   T   T
  0.6152321274970148  0.6972867959082061  0.6857196429247123   T   T   T
  0.5128458679465986  0.8310133217466982  0.6992433902042627   T   T   T
  0.7069285019608040  0.9885441130934937  0.7346153763696677   T   T   T
  0.7335193885869187  0.7456668801809373  0.7478606499348830   T   T   T
  0.8147703484490505  0.8950749615266007  0.7012769560699048   T   T   T
  0.7935110844302843  0.6472798961419299  0.6876539200015105   T   T   T
  0.8438790223745301  0.0134899652354292  0.3353585148273055   F   F   F
  0.8438790223750132  0.5134900652373702  0.3353585148273055   F   F   F
  0.3438790223750132  0.5134900652373702  0.3353585148273055   F   F   F
  0.3438790223745301  0.0134899652354292  0.3353585148273055   F   F   F
  0.0865622914572181  0.7975121106662517  0.7712746068441466   T   T   T
  0.5838077137639117  0.7917544757437666  0.7704018240459282   T   T   T
  0.3847138747173250  0.3508081113432368  0.7710967102538403   T   T   T
  0.6495325794485007  0.5866600230258123  0.7856099957534396   T   T   T
  0.5876198469603076  0.2939352485096114  0.7709851607173581   T   T   T
  0.9634110079928621  0.7158797330139968  0.7672661498534988   T   T   T
  0.4618092323280947  0.7130026945624671  0.7658642041064478   T   T   T
  0.2284066177714396  0.2500671017725470  0.7764232424413064   T   T   T
  0.7228624412935512  0.7244244174346027  0.7768423802996806   T   T   T
  0.4587668253801818  0.2106941818352314  0.7711584783787108   T   T   T
 
  0.00000000E+00  0.00000000E+00  0.00000000E+00
  0.00000000E+00  0.00000000E+00  0.00000000E+00
  0.00000000E+00  0.00000000E+00  0.00000000E+00
  0.00000000E+00  0.00000000E+00  0.00000000E+00
  0.00000000E+00  0.00000000E+00  0.00000000E+00
  0.00000000E+00  0.00000000E+00  0.00000000E+00
  0.00000000E+00  0.00000000E+00  0.00000000E+00
  0.00000000E+00  0.00000000E+00  0.00000000E+00
  0.00000000E+00  0.00000000E+00  0.00000000E+00
  0.00000000E+00  0.00000000E+00  0.00000000E+00
  0.00000000E+00  0.00000000E+00  0.00000000E+00
  0.00000000E+00  0.00000000E+00  0.00000000E+00
  0.00000000E+00  0.00000000E+00  0.00000000E+00
  0.00000000E+00  0.00000000E+00  0.00000000E+00
  0.00000000E+00  0.00000000E+00  0.00000000E+00
  0.00000000E+00  0.00000000E+00  0.00000000E+00
  0.00000000E+00  0.00000000E+00  0.00000000E+00
  0.00000000E+00  0.00000000E+00  0.00000000E+00
  0.00000000E+00  0.00000000E+00  0.00000000E+00
  0.00000000E+00  0.00000000E+00  0.00000000E+00
  0.00000000E+00  0.00000000E+00  0.00000000E+00
  0.00000000E+00  0.00000000E+00  0.00000000E+00
  0.00000000E+00  0.00000000E+00  0.00000000E+00
  0.00000000E+00  0.00000000E+00  0.00000000E+00
  0.00000000E+00  0.00000000E+00  0.00000000E+00
  0.00000000E+00  0.00000000E+00  0.00000000E+00
  0.00000000E+00  0.00000000E+00  0.00000000E+00
  0.00000000E+00  0.00000000E+00  0.00000000E+00
  0.00000000E+00  0.00000000E+00  0.00000000E+00
  0.00000000E+00  0.00000000E+00  0.00000000E+00
  0.00000000E+00  0.00000000E+00  0.00000000E+00
  0.00000000E+00  0.00000000E+00  0.00000000E+00
  0.00000000E+00  0.00000000E+00  0.00000000E+00
  0.00000000E+00  0.00000000E+00  0.00000000E+00
  0.00000000E+00  0.00000000E+00  0.00000000E+00
  0.00000000E+00  0.00000000E+00  0.00000000E+00
  0.00000000E+00  0.00000000E+00  0.00000000E+00
  0.00000000E+00  0.00000000E+00  0.00000000E+00
  0.00000000E+00  0.00000000E+00  0.00000000E+00
  0.00000000E+00  0.00000000E+00  0.00000000E+00
  0.00000000E+00  0.00000000E+00  0.00000000E+00
  0.00000000E+00  0.00000000E+00  0.00000000E+00
  0.00000000E+00  0.00000000E+00  0.00000000E+00
  0.00000000E+00  0.00000000E+00  0.00000000E+00
  0.00000000E+00  0.00000000E+00  0.00000000E+00
  0.00000000E+00  0.00000000E+00  0.00000000E+00
  0.00000000E+00  0.00000000E+00  0.00000000E+00
  0.00000000E+00  0.00000000E+00  0.00000000E+00
  0.00000000E+00  0.00000000E+00  0.00000000E+00
  0.00000000E+00  0.00000000E+00  0.00000000E+00
  0.00000000E+00  0.00000000E+00  0.00000000E+00
  0.00000000E+00  0.00000000E+00  0.00000000E+00
  0.00000000E+00  0.00000000E+00  0.00000000E+00
  0.00000000E+00  0.00000000E+00  0.00000000E+00
  0.00000000E+00  0.00000000E+00  0.00000000E+00
  0.00000000E+00  0.00000000E+00  0.00000000E+00
  0.00000000E+00  0.00000000E+00  0.00000000E+00
  0.00000000E+00  0.00000000E+00  0.00000000E+00
  0.00000000E+00  0.00000000E+00  0.00000000E+00
  0.00000000E+00  0.00000000E+00  0.00000000E+00
  0.00000000E+00  0.00000000E+00  0.00000000E+00
  0.00000000E+00  0.00000000E+00  0.00000000E+00
  0.00000000E+00  0.00000000E+00  0.00000000E+00
  0.00000000E+00  0.00000000E+00  0.00000000E+00
  0.00000000E+00  0.00000000E+00  0.00000000E+00
  0.00000000E+00  0.00000000E+00  0.00000000E+00
  0.00000000E+00  0.00000000E+00  0.00000000E+00
  0.00000000E+00  0.00000000E+00  0.00000000E+00
  0.00000000E+00  0.00000000E+00  0.00000000E+00
  0.00000000E+00  0.00000000E+00  0.00000000E+00
  0.00000000E+00  0.00000000E+00  0.00000000E+00
  0.00000000E+00  0.00000000E+00  0.00000000E+00
  0.00000000E+00  0.00000000E+00  0.00000000E+00
  0.00000000E+00  0.00000000E+00  0.00000000E+00
  0.00000000E+00  0.00000000E+00  0.00000000E+00
  0.00000000E+00  0.00000000E+00  0.00000000E+00
  0.00000000E+00  0.00000000E+00  0.00000000E+00
  0.00000000E+00  0.00000000E+00  0.00000000E+00
  0.00000000E+00  0.00000000E+00  0.00000000E+00
  0.00000000E+00  0.00000000E+00  0.00000000E+00
  0.00000000E+00  0.00000000E+00  0.00000000E+00
  0.00000000E+00  0.00000000E+00  0.00000000E+00
  0.00000000E+00  0.00000000E+00  0.00000000E+00
  0.00000000E+00  0.00000000E+00  0.00000000E+00
  0.00000000E+00  0.00000000E+00  0.00000000E+00
  0.00000000E+00  0.00000000E+00  0.00000000E+00
  0.00000000E+00  0.00000000E+00  0.00000000E+00
  0.00000000E+00  0.00000000E+00  0.00000000E+00
  0.00000000E+00  0.00000000E+00  0.00000000E+00
  0.00000000E+00  0.00000000E+00  0.00000000E+00
  0.00000000E+00  0.00000000E+00  0.00000000E+00
  0.00000000E+00  0.00000000E+00  0.00000000E+00
  0.00000000E+00  0.00000000E+00  0.00000000E+00
  0.00000000E+00  0.00000000E+00  0.00000000E+00
  0.00000000E+00  0.00000000E+00  0.00000000E+00
  0.00000000E+00  0.00000000E+00  0.00000000E+00
  0.00000000E+00  0.00000000E+00  0.00000000E+00
  0.00000000E+00  0.00000000E+00  0.00000000E+00
  0.00000000E+00  0.00000000E+00  0.00000000E+00
  0.00000000E+00  0.00000000E+00  0.00000000E+00
  0.00000000E+00  0.00000000E+00  0.00000000E+00
  0.00000000E+00  0.00000000E+00  0.00000000E+00
  0.00000000E+00  0.00000000E+00  0.00000000E+00
  0.00000000E+00  0.00000000E+00  0.00000000E+00
  0.00000000E+00  0.00000000E+00  0.00000000E+00
  0.00000000E+00  0.00000000E+00  0.00000000E+00
  0.00000000E+00  0.00000000E+00  0.00000000E+00
  0.00000000E+00  0.00000000E+00  0.00000000E+00
  0.00000000E+00  0.00000000E+00  0.00000000E+00
  0.00000000E+00  0.00000000E+00  0.00000000E+00
  0.00000000E+00  0.00000000E+00  0.00000000E+00
  0.00000000E+00  0.00000000E+00  0.00000000E+00
  0.00000000E+00  0.00000000E+00  0.00000000E+00
  0.00000000E+00  0.00000000E+00  0.00000000E+00
  0.00000000E+00  0.00000000E+00  0.00000000E+00
  0.00000000E+00  0.00000000E+00  0.00000000E+00
  0.00000000E+00  0.00000000E+00  0.00000000E+00
  0.00000000E+00  0.00000000E+00  0.00000000E+00
  0.00000000E+00  0.00000000E+00  0.00000000E+00
  0.00000000E+00  0.00000000E+00  0.00000000E+00
  0.00000000E+00  0.00000000E+00  0.00000000E+00
  0.00000000E+00  0.00000000E+00  0.00000000E+00
  0.00000000E+00  0.00000000E+00  0.00000000E+00
  0.00000000E+00  0.00000000E+00  0.00000000E+00
  0.00000000E+00  0.00000000E+00  0.00000000E+00
  0.00000000E+00  0.00000000E+00  0.00000000E+00
  0.00000000E+00  0.00000000E+00  0.00000000E+00
  0.00000000E+00  0.00000000E+00  0.00000000E+00
  0.00000000E+00  0.00000000E+00  0.00000000E+00
  0.00000000E+00  0.00000000E+00  0.00000000E+00
  0.00000000E+00  0.00000000E+00  0.00000000E+00
  0.00000000E+00  0.00000000E+00  0.00000000E+00
  0.00000000E+00  0.00000000E+00  0.00000000E+00
  0.00000000E+00  0.00000000E+00  0.00000000E+00
  0.00000000E+00  0.00000000E+00  0.00000000E+00
  0.00000000E+00  0.00000000E+00  0.00000000E+00
  0.00000000E+00  0.00000000E+00  0.00000000E+00
  0.00000000E+00  0.00000000E+00  0.00000000E+00
  0.00000000E+00  0.00000000E+00  0.00000000E+00
  0.00000000E+00  0.00000000E+00  0.00000000E+00
  0.00000000E+00  0.00000000E+00  0.00000000E+00
  0.00000000E+00  0.00000000E+00  0.00000000E+00
  0.00000000E+00  0.00000000E+00  0.00000000E+00
  0.00000000E+00  0.00000000E+00  0.00000000E+00
  0.00000000E+00  0.00000000E+00  0.00000000E+00
  0.00000000E+00  0.00000000E+00  0.00000000E+00
  0.00000000E+00  0.00000000E+00  0.00000000E+00
  0.00000000E+00  0.00000000E+00  0.00000000E+00
  0.00000000E+00  0.00000000E+00  0.00000000E+00
  0.00000000E+00  0.00000000E+00  0.00000000E+00
  0.00000000E+00  0.00000000E+00  0.00000000E+00
  0.00000000E+00  0.00000000E+00  0.00000000E+00
  0.00000000E+00  0.00000000E+00  0.00000000E+00
  0.00000000E+00  0.00000000E+00  0.00000000E+00
  0.00000000E+00  0.00000000E+00  0.00000000E+00
  0.00000000E+00  0.00000000E+00  0.00000000E+00
  0.00000000E+00  0.00000000E+00  0.00000000E+00
  0.00000000E+00  0.00000000E+00  0.00000000E+00
  0.00000000E+00  0.00000000E+00  0.00000000E+00
  0.00000000E+00  0.00000000E+00  0.00000000E+00
  0.00000000E+00  0.00000000E+00  0.00000000E+00
  0.00000000E+00  0.00000000E+00  0.00000000E+00
  0.00000000E+00  0.00000000E+00  0.00000000E+00
  0.00000000E+00  0.00000000E+00  0.00000000E+00
  0.00000000E+00  0.00000000E+00  0.00000000E+00
  0.00000000E+00  0.00000000E+00  0.00000000E+00
  0.00000000E+00  0.00000000E+00  0.00000000E+00
  0.00000000E+00  0.00000000E+00  0.00000000E+00
  0.00000000E+00  0.00000000E+00  0.00000000E+00
  0.00000000E+00  0.00000000E+00  0.00000000E+00
  0.00000000E+00  0.00000000E+00  0.00000000E+00
  0.00000000E+00  0.00000000E+00  0.00000000E+00
  0.00000000E+00  0.00000000E+00  0.00000000E+00
  0.00000000E+00  0.00000000E+00  0.00000000E+00
  0.00000000E+00  0.00000000E+00  0.00000000E+00
  0.00000000E+00  0.00000000E+00  0.00000000E+00
  0.00000000E+00  0.00000000E+00  0.00000000E+00
  0.00000000E+00  0.00000000E+00  0.00000000E+00
  0.00000000E+00  0.00000000E+00  0.00000000E+00
  0.00000000E+00  0.00000000E+00  0.00000000E+00
  0.00000000E+00  0.00000000E+00  0.00000000E+00
  0.00000000E+00  0.00000000E+00  0.00000000E+00
  0.00000000E+00  0.00000000E+00  0.00000000E+00
  0.00000000E+00  0.00000000E+00  0.00000000E+00
  0.00000000E+00  0.00000000E+00  0.00000000E+00
  0.00000000E+00  0.00000000E+00  0.00000000E+00
  0.00000000E+00  0.00000000E+00  0.00000000E+00
  0.00000000E+00  0.00000000E+00  0.00000000E+00
  0.00000000E+00  0.00000000E+00  0.00000000E+00
  0.00000000E+00  0.00000000E+00  0.00000000E+00
  0.00000000E+00  0.00000000E+00  0.00000000E+00
  0.00000000E+00  0.00000000E+00  0.00000000E+00
  0.00000000E+00  0.00000000E+00  0.00000000E+00
  0.00000000E+00  0.00000000E+00  0.00000000E+00
  0.00000000E+00  0.00000000E+00  0.00000000E+00
  0.00000000E+00  0.00000000E+00  0.00000000E+00
  0.00000000E+00  0.00000000E+00  0.00000000E+00
  0.00000000E+00  0.00000000E+00  0.00000000E+00
  0.00000000E+00  0.00000000E+00  0.00000000E+00
  0.00000000E+00  0.00000000E+00  0.00000000E+00
  0.00000000E+00  0.00000000E+00  0.00000000E+00
  0.00000000E+00  0.00000000E+00  0.00000000E+00
  0.00000000E+00  0.00000000E+00  0.00000000E+00
  0.00000000E+00  0.00000000E+00  0.00000000E+00
  0.00000000E+00  0.00000000E+00  0.00000000E+00
  0.00000000E+00  0.00000000E+00  0.00000000E+00
  0.00000000E+00  0.00000000E+00  0.00000000E+00
  0.00000000E+00  0.00000000E+00  0.00000000E+00
  0.00000000E+00  0.00000000E+00  0.00000000E+00
  0.00000000E+00  0.00000000E+00  0.00000000E+00
  0.00000000E+00  0.00000000E+00  0.00000000E+00
  0.00000000E+00  0.00000000E+00  0.00000000E+00
  0.00000000E+00  0.00000000E+00  0.00000000E+00
  0.00000000E+00  0.00000000E+00  0.00000000E+00
  0.00000000E+00  0.00000000E+00  0.00000000E+00
  0.00000000E+00  0.00000000E+00  0.00000000E+00
  0.00000000E+00  0.00000000E+00  0.00000000E+00
  0.00000000E+00  0.00000000E+00  0.00000000E+00
  0.00000000E+00  0.00000000E+00  0.00000000E+00
  0.00000000E+00  0.00000000E+00  0.00000000E+00
  0.00000000E+00  0.00000000E+00  0.00000000E+00
  0.00000000E+00  0.00000000E+00  0.00000000E+00
  0.00000000E+00  0.00000000E+00  0.00000000E+00
  0.00000000E+00  0.00000000E+00  0.00000000E+00
  0.00000000E+00  0.00000000E+00  0.00000000E+00
  0.00000000E+00  0.00000000E+00  0.00000000E+00
  0.00000000E+00  0.00000000E+00  0.00000000E+00
  0.00000000E+00  0.00000000E+00  0.00000000E+00
  0.00000000E+00  0.00000000E+00  0.00000000E+00
  0.00000000E+00  0.00000000E+00  0.00000000E+00
  0.00000000E+00  0.00000000E+00  0.00000000E+00
  0.00000000E+00  0.00000000E+00  0.00000000E+00