 F Hf  O                                
   1.00000000000000     
    14.6087084399999991    0.0000000000000000    0.0000000000000000
    -6.0995943700000002   13.5475736500000004    0.0000000000000000
     0.0000000000000000    0.0000000000000000   32.4658957799999968
   F    Hf   O 
    32    80   144
Selective dynamics
Direct
  0.8235694533244987 -0.0079619059658801  0.7766828396518901   T   T   T
  0.9558414251671239  0.3991023724332246  0.7544646597633822   T   T   T
  0.8235419880628445  0.4919818832521963  0.7766778683422986   T   T   T
  0.9558490451785734  0.8991155512223307  0.7544823552881040   T   T   T
  0.6493068636764858  0.0751054443029773  0.7766134561737698   T   T   T
  0.3235735927391522 -0.0079588010048653  0.7766814757940471   T   T   T
  0.1493082151442768  0.0751081725480886  0.7766149093674921   T   T   T
  0.0991672227715130  0.3045043172361466  0.7664028784164035   T   T   T
  0.4558489767972008  0.3991074409773589  0.7544649549136107   T   T   T
  0.0991954316151861  0.8045306842744996  0.7664120566282120   T   T   T
  0.1493255068181673  0.5750950097073111  0.7766194281371436   T   T   T
  0.4558522816754981  0.8991187242320579  0.7544807238144864   T   T   T
  0.3235422836506641  0.4919811471511209  0.7766769714636457   T   T   T
  0.5991945029485451  0.8045317340641245  0.7664165646316402   T   T   T
  0.6493294105906655  0.5750979679284699  0.7766205356122373   T   T   T
  0.5991634206618268  0.3045042597903651  0.7664042129441251   T   T   T
  0.2327073022870987  0.7446162353573942  0.7429000756382487   T   T   T
  0.2326998747475839  0.2446085934174141  0.7428905616978526   T   T   T
  0.7327055146089851  0.7446151073939402  0.7429005293289151   T   T   T
  0.7326971885813839  0.2446063562730649  0.7428898576193088   T   T   T
  0.3894919334737036  0.1898974227549812  0.7540658079498656   T   T   T
  0.8894933860788460  0.1898962256161215  0.7540647024245395   T   T   T
  0.8895184506816688  0.6898860171394141  0.7540704168236283   T   T   T
  0.3895145949668807  0.6898820174942498  0.7540714836140393   T   T   T
  0.5005460794584532  0.5907162829070500  0.7361040671528674   T   T   T
  0.0005489298704490  0.5907173769880756  0.7361040310535346   T   T   T
  0.0005505228752411  0.0907305753801221  0.7360971036287973   T   T   T
  0.5005499694676158  0.0907346626833560  0.7360972602676780   T   T   T
  0.1904363724257462  0.4774691215629557  0.7230428850175149   T   T   T
  0.1904525821670922  0.9774891924540037  0.7230487059012491   T   T   T
  0.6904506571044997  0.9774856021294408  0.7230489570831772   T   T   T
  0.6904354950129934  0.4774682560620044  0.7230427316357758   T   T   T
  0.0951266034549718  0.1055278573813112  0.3672158630948488   F   F   F
  0.3773746512413894  0.1426077178034006  0.3643771944616248   F   F   F
  0.3618411486921644  0.4072765797438578  0.3718414927407281   F   F   F
  0.0795930845713357  0.3701966802003724  0.3746801613739450   F   F   F
  0.4141158433838115  0.2764626439214837  0.4541967389387125   F   F   F
  0.1963639075046402  0.3135425434649690  0.4513580703054885   F   F   F
  0.1808303684875199  0.0782114057744963  0.4588223849094106   F   F   F
  0.3985823406464206  0.0411315062310038  0.4616610538506478   F   F   F
  0.2334729959186853  0.4472264903464049  0.5411936682715858   T   T   T
  0.0155434986037678  0.4844245355808591  0.5380843369383919   T   T   T
  0.4995291823133400  0.2486982607265161  0.5457121264068340   T   T   T
  0.2177232821095323  0.2114715651860232  0.5488434540951154   T   T   T
  0.0505987807017953  0.1175737350136001  0.6281367954201985   T   T   T
  0.3341120367946084  0.1555307836478486  0.6262189409195199   T   T   T
  0.3183929529544357  0.4215323223220977  0.6328120541535470   T   T   T
  0.0362776267798366  0.3821132040346273  0.6346750562618505   T   T   T
  0.3806931267339967  0.3003481131168212  0.7154745094327918   T   T   T
  0.1513940329886712  0.3239383527300264  0.7118368579270270   T   T   T
  0.1400925757176263  0.0931061223533683  0.7188604867064528   T   T   T
  0.3550278360857860  0.0542145460493677  0.7245374986409748   T   T   T
  0.0951266032668130  0.6055278577503813  0.3672158630948488   F   F   F
  0.3773746510532305  0.6426077181724708  0.3643771944616248   F   F   F
  0.3618411485039985  0.9072765801129279  0.3718414927407281   F   F   F
  0.0795930850676925  0.8701966805694354  0.3746801613739450   F   F   F
  0.4141158431956455  0.7764626442905538  0.4541967389387125   F   F   F
  0.1963639073164742  0.8135425438340391  0.4513580703054885   F   F   F
  0.1808303686756787  0.5782114054054261  0.4588223849094106   F   F   F
  0.3985823408345794  0.5411315058619337  0.4616610538506478   F   F   F
  0.2334497814888950  0.9472104223814654  0.5411917311845195   T   T   T
  0.0155251653671959  0.9844033789923331  0.5380730430860861   T   T   T
  0.4995564832698232  0.7486958549794466  0.5457117680027798   T   T   T
  0.2177749411447350  0.7115176950035956  0.5489022055380715   T   T   T
  0.0505968632378205  0.6175641819065970  0.6281494792711059   T   T   T
  0.3341394355115934  0.6555238738517692  0.6262393196135631   T   T   T
  0.3184159396929883  0.9215720496929691  0.6328278049688746   T   T   T
  0.0362769686129430  0.8821072116800773  0.6346789676477396   T   T   T
  0.3806966151359645  0.8003491302446623  0.7154904509245074   T   T   T
  0.1513978898635795  0.8239507719711380  0.7118477150393813   T   T   T
  0.1400986369776450  0.5930999091290658  0.7188713397529527   T   T   T
  0.3550280154347222  0.5541848784890925  0.7245466386796745   T   T   T
  0.5951266034549718  0.1055278573813112  0.3672158630948488   F   F   F
  0.8773746512413894  0.1426077178034006  0.3643771944616248   F   F   F
  0.8618411486921644  0.4072765797438578  0.3718414927407281   F   F   F
  0.5795930845713357  0.3701966802003724  0.3746801613739450   F   F   F
  0.9141158433838115  0.2764626439214837  0.4541967389387125   F   F   F
  0.6963639075046402  0.3135425434649690  0.4513580703054885   F   F   F
  0.6808303684875199  0.0782114057744963  0.4588223849094106   F   F   F
  0.8985823406464206  0.0411315062310038  0.4616610538506478   F   F   F
  0.7334745631917428  0.4472263655881237  0.5411937620321056   T   T   T
  0.5155425378681218  0.4844249670641408  0.5380852177644706   T   T   T
 -0.0004663254938778  0.2486989799078661  0.5457125825500592   T   T   T
  0.7177283051133957  0.2114700486088051  0.5488455652804394   T   T   T
  0.5505992713593117  0.1175739612538576  0.6281359877682072   T   T   T
  0.8341161931820456  0.1555334119783051  0.6262197650689867   T   T   T
  0.8183958226966264  0.4215345719033108  0.6328123296120781   T   T   T
  0.5362822385113095  0.3821178003242139  0.6346775398762955   T   T   T
  0.8806909013233233  0.3003466290581335  0.7154743527813356   T   T   T
  0.6513954275655278  0.3239390282181508  0.7118362329902780   T   T   T
  0.6400882842609891  0.0931063609457357  0.7188550433086874   T   T   T
  0.8550355173093634  0.0542162652572658  0.7245343304459206   T   T   T
  0.5951266032668130  0.6055278577503813  0.3672158630948488   F   F   F
  0.8773746510532305  0.6426077181724708  0.3643771944616248   F   F   F
  0.8618411485039985  0.9072765801129279  0.3718414927407281   F   F   F
  0.5795930850676925  0.8701966805694354  0.3746801613739450   F   F   F
  0.9141158431956455  0.7764626442905538  0.4541967389387125   F   F   F
  0.6963639073164742  0.8135425438340391  0.4513580703054885   F   F   F
  0.6808303686756787  0.5782114054054261  0.4588223849094106   F   F   F
  0.8985823408345794  0.5411315058619337  0.4616610538506478   F   F   F
  0.7334513375640173  0.9472114905414507  0.5411918587314316   T   T   T
  0.5155204690588212  0.9843999489649098  0.5380727392403825   T   T   T
 -0.0004454831272353  0.7486980225456921  0.5457120864065120   T   T   T
  0.7177732159073158  0.7115164901347243  0.5489034896399396   T   T   T
  0.5505977014083587  0.6175619628681075  0.6281498503268393   T   T   T
  0.8341433720215149  0.6555272855717493  0.6262409782392331   T   T   T
  0.8184169765031444  0.9215726211223023  0.6328281867985411   T   T   T
  0.5362829385854400  0.8821070132607266  0.6346785946737152   T   T   T
  0.8806962822599277  0.8003475915545275  0.7154897588397412   T   T   T
  0.6513995694974268  0.8239460021291617  0.7118453532532668   T   T   T
  0.6400988601920606  0.5930982933898984  0.7188726312096850   T   T   T
  0.8550299584012507  0.5541895361173481  0.7245443878482480   T   T   T
  0.1193931743256371  0.0008834740676988  0.4056640401745284   F   F   F
  0.2180497308893408  0.3747924411542130  0.3908284319638753   F   F   F
  0.2389180208814707  0.1380119967090963  0.3482289235636813   F   F   F
  0.4193983367659726  0.2985734807206626  0.3856431106919516   F   F   F
  0.4443952156011974  0.0522186029968523  0.3981871098706549   F   F   F
  0.0375694146966410  0.2142309564045064  0.3534142285107791   F   F   F
  0.0125725368541296  0.4605858348664498  0.3408702296400961   F   F   F
  0.4377606005779054  0.1716441484166447  0.4928269094552751   T   T   T
  0.0370389876489483  0.0457272671848514  0.4778093244405781   F   F   F
  0.1565637976168475  0.1828557890881086  0.4203741915049051   F   F   F
  0.0579072245305809  0.3089467832492616  0.4352097997155582   F   F   F
  0.2383875930292234  0.4695083063822310  0.4726240031686544   F   F   F
  0.2633844718644482  0.2231534286584207  0.4851680020393374   F   F   F
  0.3565586546254735  0.3851657429446789  0.4403951209874819   F   F   F
  0.3315617765948033  0.1315206217756923  0.4278511218087786   F   F   F
  0.2564841678203454  0.3420135302243254  0.5799142159752352   T   T   T
  0.3561284605074089  0.2178335293538730  0.5656527738443191   T   T   T
  0.4753403905407386  0.3534164117175596  0.5072715668625422   T   T   T
  0.3767876731303788  0.4788119006615465  0.5221802883017918   T   T   T
  0.0574144930577978  0.1401694121249848  0.5597859295046119   T   T   T
  0.0823721896163647  0.3939417881259119  0.5716792946074506   T   T   T
  0.1760675385491297  0.0561562754851828  0.5274662364946711   T   T   T
  0.1503636617008922  0.3019002200753058  0.5147367549163392   T   T   T
  0.0655419447234790  0.0087429721887214  0.6691466158297044   T   T   T
  0.1745767534723102  0.3903085779210852  0.6501623950551139   T   T   T
  0.2971187285853552  0.0264327608229233  0.5939003849293878   T   T   T
  0.1942720351213433  0.1462360619987722  0.6095196279147855   T   T   T
  0.3744151191274414  0.3113733913032054  0.6474536565876960   T   T   T
  0.4018121023257787  0.0671751256277075  0.6594474056202477   T   T   T
  0.4945452249095121  0.2267601758772304  0.6139423436655611   T   T   T
  0.4696985410409734  0.4732443291133954  0.6016721645074312   T   T   T
  0.1214695442501531  0.1973368210693618  0.6802252666186087   T   T   T
  0.0128027131701821  0.3105947957180988  0.6925446764120516   T   T   T
  0.3142538608626677  0.4031720955995917  0.7008968921187633   T   T   T
  0.2873372397954634  0.1421204802153632  0.6912403363511157   T   T   T
  0.1193931745138030  0.5008834736986287  0.4056640401745284   F   F   F
  0.2180497310774996  0.8747924407851428  0.3908284319638753   F   F   F
  0.2389180210696367  0.6380119963400261  0.3482289235636813   F   F   F
  0.4193983372623364  0.7985734810897327  0.3856431106919516   F   F   F
  0.4443952151048407  0.5522186026277822  0.3981871098706549   F   F   F
  0.0375694151929977  0.7142309567735765  0.3534142285107791   F   F   F
  0.0125725363577729  0.9605858344973797  0.3408702296400961   F   F   F
  0.4378087613229702  0.6716337072177513  0.4928263107753454   T   T   T
  0.0370389871525845  0.5457272668157813  0.4778093244405781   F   F   F
  0.1565637981132113  0.6828557894571787  0.4203741915049051   F   F   F
  0.0579072247187398  0.8089467828801915  0.4352097997155582   F   F   F
  0.2383875932173822  0.9695083060131608  0.4726240031686544   F   F   F
  0.2639900864435602  0.7236234036715615  0.4854743545758290   T   T   T
  0.3565586551218374  0.8851657433137490  0.4403951209874819   F   F   F
  0.3315617767829693  0.6315206214066222  0.4278511218087786   F   F   F
  0.2564875659774596  0.8420547559090820  0.5799397139707484   T   T   T
  0.3561928854820228  0.7178608265747097  0.5657082747458501   T   T   T
  0.4754848643253312  0.8534537085410902  0.5072640713970823   T   T   T
  0.3767783298625266  0.9788074219269489  0.5221860315522867   T   T   T
  0.0574162919470174  0.6401413218917305  0.5598040698866019   T   T   T
  0.0823806890044491  0.8939545620017105  0.5716942365656686   T   T   T
  0.1760525223083420  0.5561459546042248  0.5274466418981524   T   T   T
  0.1503108118098062  0.8018966151909480  0.5147444231216092   T   T   T
  0.0655286689837550  0.5087238450868374  0.6691609402128408   T   T   T
  0.1745893703970807  0.8903324238231358  0.6501774842255492   T   T   T
  0.2971380995078752  0.5264238400905410  0.5938979487192204   T   T   T
  0.1942719437150852  0.6461676879568528  0.6095595546378318   T   T   T
  0.3744178062357452  0.8113784991786733  0.6474704768267857   T   T   T
  0.4018023313167851  0.5671393812621982  0.6594530932502406   T   T   T
  0.4945932557260410  0.7267698488256935  0.6139678776860467   T   T   T
  0.4697021186720932  0.9732603480233264  0.6016686578080455   T   T   T
  0.1214594082797734  0.6973308330276691  0.6802411028916960   T   T   T
  0.0128183703443035  0.8106204652136026  0.6925586086314482   T   T   T
  0.3142724406098424  0.9031929816179313  0.7009048274024995   T   T   T
  0.2873505319581729  0.6421114692616465  0.6912587474231728   T   T   T
  0.6193931743256371  0.0008834740676988  0.4056640401745284   F   F   F
  0.7180497315738634  0.3747924411542130  0.3908284319638753   F   F   F
  0.7389180208814707  0.1380119967090963  0.3482289235636813   F   F   F
  0.9193983367659726  0.2985734807206626  0.3856431106919516   F   F   F
  0.9443952156011974  0.0522186029968523  0.3981871098706549   F   F   F
  0.5375694146966410  0.2142309564045064  0.3534142285107791   F   F   F
  0.5125725368541296  0.4605858348664498  0.3408702296400961   F   F   F
  0.9377615499215177  0.1716441461654123  0.4928257617385164   T   T   T
  0.5370389876489483  0.0457272671848514  0.4778093244405781   F   F   F
  0.6565637976168475  0.1828557890881086  0.4203741915049051   F   F   F
  0.5579072245305809  0.3089467832492616  0.4352097997155582   F   F   F
  0.7383875930292234  0.4695083063822310  0.4726240031686544   F   F   F
  0.7633844718644482  0.2231534286584207  0.4851680020393374   F   F   F
  0.8565586546254735  0.3851657429446789  0.4403951209874819   F   F   F
  0.8315617765948033  0.1315206217756923  0.4278511218087786   F   F   F
  0.7564805548660031  0.3420117578665354  0.5799140785640929   T   T   T
  0.8561276728148279  0.2178333033850235  0.5656524487676202   T   T   T
  0.9753414288022944  0.3534169248694133  0.5072706577124003   T   T   T
  0.8767868389215949  0.4788109149233769  0.5221801676269386   T   T   T
  0.5574151514269757  0.1401669925470195  0.5597854207226316   T   T   T
  0.5823693292690887  0.3939398836554457  0.5716793048950510   T   T   T
  0.6760667562990831  0.0561549513846553  0.5274667868826078   T   T   T
  0.6503645468274466  0.3019011076524018  0.5147363307922491   T   T   T
  0.5655376387532719  0.0087373143675633  0.6691458775768353   T   T   T
  0.6745743655912795  0.3903056811223050  0.6501629225101883   T   T   T
  0.7971125058498704  0.0264323554833480  0.5939007789233417   T   T   T
  0.6942695008373793  0.1462381095544853  0.6095205256149741   T   T   T
  0.8744146551615499  0.3113730800857030  0.6474531600408470   T   T   T
  0.9018104732001418  0.0671740280674319  0.6594483440289339   T   T   T
  0.9945463225895040  0.2267613643847037  0.6139436674851075   T   T   T
  0.9696980981655120  0.4732447987500724  0.6016718341050927   T   T   T
  0.6214676861303974  0.1973360508201837  0.6802236774163652   T   T   T
  0.5128027231189352  0.3105943543897147  0.6925452761098821   T   T   T
  0.8142531468369471  0.4031703419562552  0.7008961799135214   T   T   T
  0.7873346892498498  0.1421203577445566  0.6912411405725929   T   T   T
  0.6193931745138030  0.5008834736986287  0.4056640401745284   F   F   F
  0.7180497310774996  0.8747924407851428  0.3908284319638753   F   F   F
  0.7389180210696367  0.6380119963400261  0.3482289235636813   F   F   F
  0.9193983372623364  0.7985734810897327  0.3856431106919516   F   F   F
  0.9443952157893634  0.5522186026277822  0.3981871098706549   F   F   F
  0.5375694151929977  0.7142309567735765  0.3534142285107791   F   F   F
  0.5125725363577729  0.9605858344973797  0.3408702296400961   F   F   F
  0.9378084786617071  0.6716325029453225  0.4928259698348587   T   T   T
  0.5370389871525845  0.5457272668157813  0.4778093244405781   F   F   F
  0.6565637981132113  0.6828557894571787  0.4203741915049051   F   F   F
  0.5579072247187398  0.8089467828801915  0.4352097997155582   F   F   F
  0.7383875932173822  0.9695083060131608  0.4726240031686544   F   F   F
  0.7639887910379807  0.7236218368462055  0.4854746324586239   T   T   T
  0.8565586551218374  0.8851657433137490  0.4403951209874819   F   F   F
  0.8315617767829693  0.6315206214066222  0.4278511218087786   F   F   F
  0.7564822766523247  0.8420541067839403  0.5799383807331298   T   T   T
  0.8561903926306037  0.7178620979026257  0.5657084701042717   T   T   T
  0.9754836971898774  0.8534507534417162  0.5072632125467723   T   T   T
  0.8767765245225627  0.9788058815734002  0.5221861678067464   T   T   T
  0.5574158181576492  0.6401408588284547  0.5598040827339754   T   T   T
  0.5823794791404596  0.8939527458856513  0.5716949078419495   T   T   T
  0.6760516589248332  0.5561428318657675  0.5274471683053887   T   T   T
  0.6503117472101528  0.8018997016173486  0.5147443363300523   T   T   T
  0.5655268501096480  0.5087210644969729  0.6691620458549790   T   T   T
  0.6745835209354469  0.8903285223530742  0.6501784154056454   T   T   T
  0.7971354948975921  0.5264230600016755  0.5938978321333759   T   T   T
  0.6942680160694309  0.6461668058555035  0.6095603094464744   T   T   T
  0.8744168077481841  0.8113800093960276  0.6474691379393278   T   T   T
  0.9018036805709101  0.5671401927013011  0.6594532669550912   T   T   T
  0.9945928093250128  0.7267701068443100  0.6139679969918203   T   T   T
  0.9696992961869747  0.9732631827202890  0.6016685664713665   T   T   T
  0.6214602276235610  0.6973326495947609  0.6802418986329306   T   T   T
  0.5128164203231035  0.8106172491441207  0.6925597303677496   T   T   T
  0.8142712785567694  0.9031910831606468  0.7009062814440370   T   T   T
  0.7873492898959900  0.6421133702773736  0.6912596666425090   T   T   T
  0.8732978156852482  0.0208461682730885  0.3276607573709143   F   F   F
  0.8733185305434503  0.5209257526346818  0.3276607573709143   F   F   F
  0.3732503670912166  0.5209257526346818  0.3276607573709143   F   F   F
  0.3732296522330074  0.0208461682730885  0.3276607573709143   F   F   F
 
  0.00000000E+00  0.00000000E+00  0.00000000E+00
  0.00000000E+00  0.00000000E+00  0.00000000E+00
  0.00000000E+00  0.00000000E+00  0.00000000E+00
  0.00000000E+00  0.00000000E+00  0.00000000E+00
  0.00000000E+00  0.00000000E+00  0.00000000E+00
  0.00000000E+00  0.00000000E+00  0.00000000E+00
  0.00000000E+00  0.00000000E+00  0.00000000E+00
  0.00000000E+00  0.00000000E+00  0.00000000E+00
  0.00000000E+00  0.00000000E+00  0.00000000E+00
  0.00000000E+00  0.00000000E+00  0.00000000E+00
  0.00000000E+00  0.00000000E+00  0.00000000E+00
  0.00000000E+00  0.00000000E+00  0.00000000E+00
  0.00000000E+00  0.00000000E+00  0.00000000E+00
  0.00000000E+00  0.00000000E+00  0.00000000E+00
  0.00000000E+00  0.00000000E+00  0.00000000E+00
  0.00000000E+00  0.00000000E+00  0.00000000E+00
  0.00000000E+00  0.00000000E+00  0.00000000E+00
  0.00000000E+00  0.00000000E+00  0.00000000E+00
  0.00000000E+00  0.00000000E+00  0.00000000E+00
  0.00000000E+00  0.00000000E+00  0.00000000E+00
  0.00000000E+00  0.00000000E+00  0.00000000E+00
  0.00000000E+00  0.00000000E+00  0.00000000E+00
  0.00000000E+00  0.00000000E+00  0.00000000E+00
  0.00000000E+00  0.00000000E+00  0.00000000E+00
  0.00000000E+00  0.00000000E+00  0.00000000E+00
  0.00000000E+00  0.00000000E+00  0.00000000E+00
  0.00000000E+00  0.00000000E+00  0.00000000E+00
  0.00000000E+00  0.00000000E+00  0.00000000E+00
  0.00000000E+00  0.00000000E+00  0.00000000E+00
  0.00000000E+00  0.00000000E+00  0.00000000E+00
  0.00000000E+00  0.00000000E+00  0.00000000E+00
  0.00000000E+00  0.00000000E+00  0.00000000E+00
  0.00000000E+00  0.00000000E+00  0.00000000E+00
  0.00000000E+00  0.00000000E+00  0.00000000E+00
  0.00000000E+00  0.00000000E+00  0.00000000E+00
  0.00000000E+00  0.00000000E+00  0.00000000E+00
  0.00000000E+00  0.00000000E+00  0.00000000E+00
  0.00000000E+00  0.00000000E+00  0.00000000E+00
  0.00000000E+00  0.00000000E+00  0.00000000E+00
  0.00000000E+00  0.00000000E+00  0.00000000E+00
  0.00000000E+00  0.00000000E+00  0.00000000E+00
  0.00000000E+00  0.00000000E+00  0.00000000E+00
  0.00000000E+00  0.00000000E+00  0.00000000E+00
  0.00000000E+00  0.00000000E+00  0.00000000E+00
  0.00000000E+00  0.00000000E+00  0.00000000E+00
  0.00000000E+00  0.00000000E+00  0.00000000E+00
  0.00000000E+00  0.00000000E+00  0.00000000E+00
  0.00000000E+00  0.00000000E+00  0.00000000E+00
  0.00000000E+00  0.00000000E+00  0.00000000E+00
  0.00000000E+00  0.00000000E+00  0.00000000E+00
  0.00000000E+00  0.00000000E+00  0.00000000E+00
  0.00000000E+00  0.00000000E+00  0.00000000E+00
  0.00000000E+00  0.00000000E+00  0.00000000E+00
  0.00000000E+00  0.00000000E+00  0.00000000E+00
  0.00000000E+00  0.00000000E+00  0.00000000E+00
  0.00000000E+00  0.00000000E+00  0.00000000E+00
  0.00000000E+00  0.00000000E+00  0.00000000E+00
  0.00000000E+00  0.00000000E+00  0.00000000E+00
  0.00000000E+00  0.00000000E+00  0.00000000E+00
  0.00000000E+00  0.00000000E+00  0.00000000E+00
  0.00000000E+00  0.00000000E+00  0.00000000E+00
  0.00000000E+00  0.00000000E+00  0.00000000E+00
  0.00000000E+00  0.00000000E+00  0.00000000E+00
  0.00000000E+00  0.00000000E+00  0.00000000E+00
  0.00000000E+00  0.00000000E+00  0.00000000E+00
  0.00000000E+00  0.00000000E+00  0.00000000E+00
  0.00000000E+00  0.00000000E+00  0.00000000E+00
  0.00000000E+00  0.00000000E+00  0.00000000E+00
  0.00000000E+00  0.00000000E+00  0.00000000E+00
  0.00000000E+00  0.00000000E+00  0.00000000E+00
  0.00000000E+00  0.00000000E+00  0.00000000E+00
  0.00000000E+00  0.00000000E+00  0.00000000E+00
  0.00000000E+00  0.00000000E+00  0.00000000E+00
  0.00000000E+00  0.00000000E+00  0.00000000E+00
  0.00000000E+00  0.00000000E+00  0.00000000E+00
  0.00000000E+00  0.00000000E+00  0.00000000E+00
  0.00000000E+00  0.00000000E+00  0.00000000E+00
  0.00000000E+00  0.00000000E+00  0.00000000E+00
  0.00000000E+00  0.00000000E+00  0.00000000E+00
  0.00000000E+00  0.00000000E+00  0.00000000E+00
  0.00000000E+00  0.00000000E+00  0.00000000E+00
  0.00000000E+00  0.00000000E+00  0.00000000E+00
  0.00000000E+00  0.00000000E+00  0.00000000E+00
  0.00000000E+00  0.00000000E+00  0.00000000E+00
  0.00000000E+00  0.00000000E+00  0.00000000E+00
  0.00000000E+00  0.00000000E+00  0.00000000E+00
  0.00000000E+00  0.00000000E+00  0.00000000E+00
  0.00000000E+00  0.00000000E+00  0.00000000E+00
  0.00000000E+00  0.00000000E+00  0.00000000E+00
  0.00000000E+00  0.00000000E+00  0.00000000E+00
  0.00000000E+00  0.00000000E+00  0.00000000E+00
  0.00000000E+00  0.00000000E+00  0.00000000E+00
  0.00000000E+00  0.00000000E+00  0.00000000E+00
  0.00000000E+00  0.00000000E+00  0.00000000E+00
  0.00000000E+00  0.00000000E+00  0.00000000E+00
  0.00000000E+00  0.00000000E+00  0.00000000E+00
  0.00000000E+00  0.00000000E+00  0.00000000E+00
  0.00000000E+00  0.00000000E+00  0.00000000E+00
  0.00000000E+00  0.00000000E+00  0.00000000E+00
  0.00000000E+00  0.00000000E+00  0.00000000E+00
  0.00000000E+00  0.00000000E+00  0.00000000E+00
  0.00000000E+00  0.00000000E+00  0.00000000E+00
  0.00000000E+00  0.00000000E+00  0.00000000E+00
  0.00000000E+00  0.00000000E+00  0.00000000E+00
  0.00000000E+00  0.00000000E+00  0.00000000E+00
  0.00000000E+00  0.00000000E+00  0.00000000E+00
  0.00000000E+00  0.00000000E+00  0.00000000E+00
  0.00000000E+00  0.00000000E+00  0.00000000E+00
  0.00000000E+00  0.00000000E+00  0.00000000E+00
  0.00000000E+00  0.00000000E+00  0.00000000E+00
  0.00000000E+00  0.00000000E+00  0.00000000E+00
  0.00000000E+00  0.00000000E+00  0.00000000E+00
  0.00000000E+00  0.00000000E+00  0.00000000E+00
  0.00000000E+00  0.00000000E+00  0.00000000E+00
  0.00000000E+00  0.00000000E+00  0.00000000E+00
  0.00000000E+00  0.00000000E+00  0.00000000E+00
  0.00000000E+00  0.00000000E+00  0.00000000E+00
  0.00000000E+00  0.00000000E+00  0.00000000E+00
  0.00000000E+00  0.00000000E+00  0.00000000E+00
  0.00000000E+00  0.00000000E+00  0.00000000E+00
  0.00000000E+00  0.00000000E+00  0.00000000E+00
  0.00000000E+00  0.00000000E+00  0.00000000E+00
  0.00000000E+00  0.00000000E+00  0.00000000E+00
  0.00000000E+00  0.00000000E+00  0.00000000E+00
  0.00000000E+00  0.00000000E+00  0.00000000E+00
  0.00000000E+00  0.00000000E+00  0.00000000E+00
  0.00000000E+00  0.00000000E+00  0.00000000E+00
  0.00000000E+00  0.00000000E+00  0.00000000E+00
  0.00000000E+00  0.00000000E+00  0.00000000E+00
  0.00000000E+00  0.00000000E+00  0.00000000E+00
  0.00000000E+00  0.00000000E+00  0.00000000E+00
  0.00000000E+00  0.00000000E+00  0.00000000E+00
  0.00000000E+00  0.00000000E+00  0.00000000E+00
  0.00000000E+00  0.00000000E+00  0.00000000E+00
  0.00000000E+00  0.00000000E+00  0.00000000E+00
  0.00000000E+00  0.00000000E+00  0.00000000E+00
  0.00000000E+00  0.00000000E+00  0.00000000E+00
  0.00000000E+00  0.00000000E+00  0.00000000E+00
  0.00000000E+00  0.00000000E+00  0.00000000E+00
  0.00000000E+00  0.00000000E+00  0.00000000E+00
  0.00000000E+00  0.00000000E+00  0.00000000E+00
  0.00000000E+00  0.00000000E+00  0.00000000E+00
  0.00000000E+00  0.00000000E+00  0.00000000E+00
  0.00000000E+00  0.00000000E+00  0.00000000E+00
  0.00000000E+00  0.00000000E+00  0.00000000E+00
  0.00000000E+00  0.00000000E+00  0.00000000E+00
  0.00000000E+00  0.00000000E+00  0.00000000E+00
  0.00000000E+00  0.00000000E+00  0.00000000E+00
  0.00000000E+00  0.00000000E+00  0.00000000E+00
  0.00000000E+00  0.00000000E+00  0.00000000E+00
  0.00000000E+00  0.00000000E+00  0.00000000E+00
  0.00000000E+00  0.00000000E+00  0.00000000E+00
  0.00000000E+00  0.00000000E+00  0.00000000E+00
  0.00000000E+00  0.00000000E+00  0.00000000E+00
  0.00000000E+00  0.00000000E+00  0.00000000E+00
  0.00000000E+00  0.00000000E+00  0.00000000E+00
  0.00000000E+00  0.00000000E+00  0.00000000E+00
  0.00000000E+00  0.00000000E+00  0.00000000E+00
  0.00000000E+00  0.00000000E+00  0.00000000E+00
  0.00000000E+00  0.00000000E+00  0.00000000E+00
  0.00000000E+00  0.00000000E+00  0.00000000E+00
  0.00000000E+00  0.00000000E+00  0.00000000E+00
  0.00000000E+00  0.00000000E+00  0.00000000E+00
  0.00000000E+00  0.00000000E+00  0.00000000E+00
  0.00000000E+00  0.00000000E+00  0.00000000E+00
  0.00000000E+00  0.00000000E+00  0.00000000E+00
  0.00000000E+00  0.00000000E+00  0.00000000E+00
  0.00000000E+00  0.00000000E+00  0.00000000E+00
  0.00000000E+00  0.00000000E+00  0.00000000E+00
  0.00000000E+00  0.00000000E+00  0.00000000E+00
  0.00000000E+00  0.00000000E+00  0.00000000E+00
  0.00000000E+00  0.00000000E+00  0.00000000E+00
  0.00000000E+00  0.00000000E+00  0.00000000E+00
  0.00000000E+00  0.00000000E+00  0.00000000E+00
  0.00000000E+00  0.00000000E+00  0.00000000E+00
  0.00000000E+00  0.00000000E+00  0.00000000E+00
  0.00000000E+00  0.00000000E+00  0.00000000E+00
  0.00000000E+00  0.00000000E+00  0.00000000E+00
  0.00000000E+00  0.00000000E+00  0.00000000E+00
  0.00000000E+00  0.00000000E+00  0.00000000E+00
  0.00000000E+00  0.00000000E+00  0.00000000E+00
  0.00000000E+00  0.00000000E+00  0.00000000E+00
  0.00000000E+00  0.00000000E+00  0.00000000E+00
  0.00000000E+00  0.00000000E+00  0.00000000E+00
  0.00000000E+00  0.00000000E+00  0.00000000E+00
  0.00000000E+00  0.00000000E+00  0.00000000E+00
  0.00000000E+00  0.00000000E+00  0.00000000E+00
  0.00000000E+00  0.00000000E+00  0.00000000E+00
  0.00000000E+00  0.00000000E+00  0.00000000E+00
  0.00000000E+00  0.00000000E+00  0.00000000E+00
  0.00000000E+00  0.00000000E+00  0.00000000E+00
  0.00000000E+00  0.00000000E+00  0.00000000E+00
  0.00000000E+00  0.00000000E+00  0.00000000E+00
  0.00000000E+00  0.00000000E+00  0.00000000E+00
  0.00000000E+00  0.00000000E+00  0.00000000E+00
  0.00000000E+00  0.00000000E+00  0.00000000E+00
  0.00000000E+00  0.00000000E+00  0.00000000E+00
  0.00000000E+00  0.00000000E+00  0.00000000E+00
  0.00000000E+00  0.00000000E+00  0.00000000E+00
  0.00000000E+00  0.00000000E+00  0.00000000E+00
  0.00000000E+00  0.00000000E+00  0.00000000E+00
  0.00000000E+00  0.00000000E+00  0.00000000E+00
  0.00000000E+00  0.00000000E+00  0.00000000E+00
  0.00000000E+00  0.00000000E+00  0.00000000E+00
  0.00000000E+00  0.00000000E+00  0.00000000E+00
  0.00000000E+00  0.00000000E+00  0.00000000E+00
  0.00000000E+00  0.00000000E+00  0.00000000E+00
  0.00000000E+00  0.00000000E+00  0.00000000E+00
  0.00000000E+00  0.00000000E+00  0.00000000E+00
  0.00000000E+00  0.00000000E+00  0.00000000E+00
  0.00000000E+00  0.00000000E+00  0.00000000E+00
  0.00000000E+00  0.00000000E+00  0.00000000E+00
  0.00000000E+00  0.00000000E+00  0.00000000E+00
  0.00000000E+00  0.00000000E+00  0.00000000E+00
  0.00000000E+00  0.00000000E+00  0.00000000E+00
  0.00000000E+00  0.00000000E+00  0.00000000E+00
  0.00000000E+00  0.00000000E+00  0.00000000E+00
  0.00000000E+00  0.00000000E+00  0.00000000E+00
  0.00000000E+00  0.00000000E+00  0.00000000E+00
  0.00000000E+00  0.00000000E+00  0.00000000E+00
  0.00000000E+00  0.00000000E+00  0.00000000E+00
  0.00000000E+00  0.00000000E+00  0.00000000E+00
  0.00000000E+00  0.00000000E+00  0.00000000E+00
  0.00000000E+00  0.00000000E+00  0.00000000E+00