Hf  O  F  H                             
   1.00000000000000     
    14.6106902099999996    0.0000000000000000    0.0000000000000000
    -6.0999520900000004   13.5497369200000009    0.0000000000000000
     0.0000000000000000    0.0000000000000000   32.4676209000000000
   Hf   O    F    H 
    80   160     1     1
Direct
  0.1045919874715945  0.1073821600593130  0.3671036281147022
  0.3727106770127780  0.1396851491073261  0.3649972828185539
  0.3730711858214800  0.4234522240153022  0.3724743693668725
  0.0738191219956039  0.3640807026566593  0.3751554274334871
  0.4124771297306178  0.2780783823090364  0.4538088005795031
  0.1978259959602992  0.3153690112296395  0.4494064049958760
  0.1807363534556474  0.0778934969951862  0.4589510600595140
  0.4000727524821692  0.0434847866503381  0.4632613578520128
  0.2326533829595419  0.4468088257089031  0.5408072041310097
  0.0158384973206277  0.4847534455085242  0.5388086174974421
  0.5013132514236117  0.2509085511932444  0.5457643212271480
  0.2177456827656367  0.2129990727189963  0.5479162967240365
  0.0536009602975410  0.1199272006101374  0.6276734900147115
  0.3343457976334225  0.1550111045570065  0.6238357936550860
  0.3201567754230002  0.4196924051309469  0.6327189213333325
  0.0353218290185496  0.3830502822388044  0.6365896634957466
  0.3576146097382177  0.2730591644106558  0.7138937035722085
  0.1594970725294020  0.3330192954878947  0.7114748024426435
  0.1307906497909474  0.0884581603619864  0.7192130088142147
  0.3620520893522858  0.0566092531995558  0.7224341446588587
  0.1044896343639666  0.6073517350553146  0.3670603112777615
  0.3726587996335661  0.6398132869550556  0.3649199647827630
  0.3731727996206459  0.9235711596482707  0.3726599243944283
  0.0739151342873722  0.8640854979415348  0.3752444217912461
  0.4125290590662785  0.7784521041710261  0.4539573035049905
  0.1979309128063509  0.8154603847662999  0.4495462430966031
  0.1804249549830992  0.5780491976507893  0.4588827717374073
  0.3996413946212026  0.5435325022105502  0.4629119787204226
  0.2331703763411193  0.9468152878994806  0.5413240558975793
  0.0162754108943379  0.9847465544474504  0.5386843966608437
  0.5006009592494485  0.7514686118851739  0.5454737870045993
  0.2172918464747077  0.7129102721208065  0.5479795983331334
  0.0520903151377110  0.6181266527012597  0.6278227602681602
  0.3335113473790771  0.6544781960520192  0.6235336371336136
  0.3224180242572064  0.9205675571226916  0.6329870112125348
  0.0361046147114798  0.8819157879271344  0.6369220275002035
  0.3607899269729636  0.7744705246763890  0.7141611658236673
  0.1594036522797295  0.8324116643679936  0.7111204365821930
  0.1289157729315013  0.5895937159034713  0.7197244840815196
  0.3607271990683598  0.5581664738995930  0.7216744415650361
  0.6044887322468900  0.1073858575398720  0.3671455043352254
  0.8727041225867473  0.1396737283389596  0.3649118033644086
  0.8730498603111698  0.4233902480771525  0.3724167162396170
  0.5738677474748726  0.3640628555437471  0.3751645736282481
  0.9122769961083423  0.2779525025238690  0.4537676418862689
  0.6979078573140474  0.3154833271133344  0.4494851256349106
  0.6804576812940811  0.0781986072853188  0.4590820870681608
  0.8997623002683673  0.0433021396911336  0.4630630498762581
  0.7329820706410702  0.4470839133457490  0.5410480193253623
  0.5160183297895656  0.4850601836485485  0.5383807296281943
  0.0004858065285296  0.2508612589869427  0.5455950063768736
  0.7173116782545654  0.2129516389877169  0.5481953420600119
  0.5568213378516010  0.1240141721826875  0.6308536568578856
  0.8340918995038065  0.1540176859479017  0.6240538285172097
  0.8156596373198152  0.4164285859963687  0.6338597802982657
  0.5347977376505247  0.3842968558577354  0.6363212284489681
  0.8660631493973886  0.2733070937115714  0.7142718398928710
  0.6489774902668485  0.3406449054801803  0.7153499301233798
  0.6269039897883634  0.0784298056025684  0.7214873125176587
  0.8642022745299410  0.0552336816609269  0.7212299516675844
  0.6044840407236485  0.6073994033785115  0.3669821198566834
  0.8726031943601784  0.6396430318730305  0.3648256929673164
  0.8731581231173746  0.9235268834523673  0.3725236799412252
  0.5737889411798737  0.8642769490249445  0.3752466237038894
  0.9123653094098316  0.7779978864438394  0.4537446630507831
  0.6977751238252780  0.8154573159967398  0.4494032766354640
  0.6806937337814339  0.5780154930532679  0.4587459987608798
  0.8997218656859828  0.5430726892574269  0.4629553821408818
  0.7329392340405559  0.9471037723405276  0.5410067090814686
  0.5165399838439829  0.9863113744722349  0.5395508883316624
  0.0004027305561312  0.7503331126964599  0.5455957618580245
  0.7174051068218389  0.7129207292232277  0.5477063730774701
  0.5527648199133082  0.6202875581311098  0.6273526730477192
  0.8331306841398112  0.6535338449579079  0.6235237608016682
  0.8215792059755967  0.9190095533323527  0.6325203869000250
  0.5360958079613842  0.8823130273357085  0.6369390971255561
  0.8618744276298151  0.7741829232753609  0.7139052608673480
  0.6600999012912729  0.8324862901018754  0.7112010047469985
  0.6289943015635088  0.5917646891866979  0.7193045988851432
  0.8610305013447196  0.5569003084081943  0.7225439039163033
  0.1289677403729180  0.0034795704194550  0.4054744422045273
  0.2164002631359899  0.3661908961564191  0.3861770294761128
  0.2419561434276323  0.1490515747267371  0.3460571615994154
  0.4153147954974117  0.2992088143252050  0.3851780387664407
  0.4480457884385727  0.0548362016151598  0.4014725543192778
  0.0295181083866441  0.2135506656267293  0.3518299272490344
  0.0182455530607186  0.4607890097383140  0.3440534287921767
  0.4417344592570976  0.1758883289141266  0.4920211190134723
  0.0374559388112135  0.0448904601414733  0.4784424581378439
  0.1530614394756538  0.1813878331752935  0.4214905188048729
  0.0586434544743865  0.3153359517895631  0.4347954195377142
  0.2391933935340738  0.4701519475443681  0.4725807833594475
  0.2648961300297157  0.2247509072139739  0.4844286107992590
  0.3560977373742121  0.3881642544010805  0.4403350331943884
  0.3326622408009062  0.1321682715947975  0.4279333498654595
  0.2584745139062031  0.3429993252070297  0.5790943374925887
  0.3566710857955468  0.2155511854853522  0.5637038974531492
  0.4751655409110943  0.3549168313459070  0.5072637434829191
  0.3777700245791537  0.4826457199745481  0.5230679066724092
  0.0574534931857598  0.1416458869423816  0.5591643327168030
  0.0826246346782621  0.3945162297822018  0.5725779665349122
  0.1765015984410715  0.0565427982278488  0.5278230014278317
  0.1508681576899840  0.3030010697411809  0.5138546264035333
  0.0817534076040751  0.0161039359644648  0.6647395774309445
  0.1739606977197695  0.3812530432545136  0.6517354151275311
  0.2928836391506455  0.0224733454718059  0.5953317434091880
  0.1967547123575705  0.1534397581950956  0.6082149992506991
  0.3754259441357917  0.3093677519002915  0.6457128625099582
  0.4033502160203172  0.0670652850726046  0.6599667327017912
  0.4957424204122627  0.2289071754925878  0.6153830634458805
  0.4683064984774200  0.4733056898692078  0.6018484671866955
  0.3913485324891916  0.1831497687894801  0.7502481707005079
  0.4894431369384926  0.0403709563466658  0.7418871089751273
  0.1038321485067321  0.1932679065498777  0.6816387756347771
  0.0182895299251349  0.3340522512169191  0.7003865720883274
  0.2037539495311664  0.4839547768999375  0.7348348345847532
  0.2146927610828959  0.2356984671450712  0.7426733414364470
  0.3171753835595278  0.3981275512129708  0.7015457546313628
  0.2835920564429032  0.1419411181434287  0.6850330691202946
  0.1287653993893575  0.5035007953306594  0.4053731841637131
  0.2165740567399076  0.8663166317124462  0.3863592126044016
  0.2418906501821676  0.6492096986320007  0.3460065437466284
  0.4152680514511958  0.7994607623330643  0.3852857644380811
  0.4478409728705166  0.5548235185644981  0.4012282842740291
  0.0294212290269414  0.7136499322571437  0.3518317403914139
  0.0183537694863424  0.9607869558713091  0.3441729446332616
  0.4411680042516080  0.6758554668994363  0.4918615643674061
  0.0371239253436519  0.5445526526540873  0.4783691494416245
  0.1527858194614401  0.6814978390561643  0.4214555855000124
  0.0588352825484049  0.8155304042314412  0.4349022613417036
  0.2396141314600098  0.9701351760921244  0.4729785299633965
  0.2646147047981108  0.7249167236034417  0.4843853060609865
  0.3562449835135301  0.8884126489038640  0.4405642072517991
  0.3325445510751280  0.6324641913488437  0.4278049270071343
  0.2603069703891591  0.8434489470226264  0.5793989561672641
  0.3554484815673336  0.7150692640453961  0.5633779908344954
  0.4751418001423524  0.8559357673429812  0.5075838775734051
  0.3784459256080518  0.9835625019476361  0.5237103197797541
  0.0569193983608517  0.6407011985001292  0.5590641644148434
  0.0826564153176331  0.8937617237218207  0.5727571569161277
  0.1762412873740586  0.5566753448581302  0.5275861987193018
  0.1512683555498806  0.8031807077185622  0.5142171631633093
  0.0820453275300875  0.5162525028811211  0.6650885524344778
  0.1749989432376299  0.8810201620836063  0.6515722756224512
  0.2916274503476631  0.5222295591091106  0.5946978747215474
  0.1958475531085642  0.6535232137440129  0.6084432392605617
  0.3783490882491687  0.8100838913451258  0.6461636003138699
  0.4007719256369212  0.5655401212189959  0.6586983407004953
  0.4942038299580785  0.7282863567655790  0.6138772288662565
  0.4716692792649289  0.9764046355469472  0.6035498157799061
  0.3906900360168613  0.6837731440667011  0.7512591795013817
  0.4912409095909882  0.5497564550906028  0.7404332697035804
  0.1027218334657615  0.6927394837917690  0.6815593900557869
  0.0177839320842668  0.8319469208194412  0.7002808579434397
  0.2049235095635050  0.9838730466758615  0.7348004810668808
  0.2153655911414326  0.7365351517600326  0.7424081035231103
  0.3178680947429938  0.8977024879208643  0.7011366555197910
  0.2860092424496117  0.6433756957938910  0.6853317669203071
  0.6284521505534471  0.0035477336417791  0.4056416409735557
  0.7164613630529210  0.3662185470317407  0.3862028281376388
  0.7418112226572233  0.1488766448622853  0.3460624497620899
  0.9152494937345849  0.2991845576837992  0.3850925101780435
  0.9478831073205390  0.0547988958684244  0.4013246335242238
  0.5294786633003939  0.2135260701869794  0.3518725414380646
  0.5181505869123004  0.4607539806410416  0.3440675488995865
  0.9406362729636312  0.1753514064380512  0.4920305531707353
  0.5377695318926854  0.0456473650207897  0.4789837845657690
  0.6530632674411727  0.1815448227757536  0.4215336917059261
  0.5588735043711418  0.3155935883656501  0.4348167537548979
  0.7392480773586709  0.4700629040089190  0.4726508614777314
  0.7647134928695786  0.2249341272496503  0.4845871420571206
  0.8560644874890611  0.3879771554588841  0.4403099881103407
  0.8324867032351897  0.1322347977192490  0.4278129184710022
  0.7575579087935916  0.3427951825077450  0.5797564434861708
  0.8557513629733212  0.2160257578896250  0.5640086490319018
  0.9750011176349381  0.3547949850450787  0.5073245936047786
  0.8775541200967563  0.4818140297978669  0.5231459066788758
  0.5582779040157659  0.1423721808991772  0.5602895987354160
  0.5823946475372281  0.3949045737414605  0.5723809250829019
  0.6767049291363106  0.0573877673524576  0.5281854066514859
  0.6513780809050068  0.3031910394423569  0.5141275379330165
  0.5830275359387529  0.0166686023401733  0.6655063182611021
  0.6729928772614402  0.3854040228353969  0.6522216046449961
  0.7925772119743184  0.0227310741599394  0.5948807026575127
  0.6975933036813518  0.1559206728044055  0.6097140536043120
  0.8773651847288683  0.3108512918301173  0.6476474611443639
  0.9023050453824218  0.0642414359649530  0.6586578702553694
  0.9938522693060851  0.2278197119531568  0.6143699738142251
  0.9681943384161662  0.4718930767347444  0.6023801469002105
  0.9085693748221628  0.1844065204019649  0.7490082079279405
  0.9924505264310980  0.0421863045482585  0.7404590590848547
  0.6128623188645622  0.1960719179713155  0.6873564231251458
  0.5125392188888883  0.3361517584196487  0.6996340333930996
  0.7024376706094063  0.4922300165487944  0.7334256817193260
  0.7324849329599867  0.2026901914070322  0.7540790466454262
  0.8084352869907866  0.3872477159594282  0.7076406926036145
  0.7887119414492254  0.1420979206122571  0.6863579507184185
  0.6289149758497609  0.5035795141166366  0.4052845274317976
  0.7164787355166652  0.8666005673182078  0.3862844354836507
  0.7418844285790557  0.6492005917796962  0.3459282802000614
  0.9153278022611281  0.7993003934891597  0.3852288820563410
  0.9477526422900968  0.5546555078162183  0.4012298558774536
  0.5293994112913950  0.7138199673514007  0.3518440661120305
  0.5183401667327592  0.9609121236180227  0.3441670201874090
  0.9409851434495428  0.6753290563952062  0.4918467246345181
  0.5373422027690465  0.5449276505066364  0.4781991082898964
  0.6529710379640390  0.6815961450921948  0.4213410578549672
  0.5587736586505545  0.8156535991082191  0.4348993449452074
  0.7392691198821787  0.9705040247307879  0.4729090084673164
  0.7646540262792467  0.7248967649686018  0.4842547554840507
  0.8560643342530677  0.8882316293755684  0.4404161995486472
  0.8324815106117656  0.6322096044525924  0.4277250682847555
  0.7584069102380391  0.8429222845665129  0.5791665008294516
  0.8556721543903983  0.7153906807066379  0.5633955445102758
  0.9751723921252925  0.8548373518563247  0.5073394760782868
  0.8779590867978669  0.9824796956114662  0.5232995916896382
  0.5571778543351684  0.6415530961318172  0.5588794383543093
  0.5824535773329346  0.8951206766284828  0.5728195116511345
  0.6765452100468050  0.5568012440861196  0.5275088732410754
  0.6510368575023927  0.8034994601554742  0.5139365959232374
  0.5800882477608721  0.5179462507684633  0.6647456053708717
  0.6755071374020492  0.8830969020265226  0.6517540909154973
  0.7933819347595180  0.5218098844457049  0.5948486082395466
  0.6963017300867890  0.6531432030133859  0.6080122918896907
  0.8784979954501214  0.8100410208315091  0.6458218061790099
  0.8985634261475822  0.5598285933567140  0.6600806856509811
  0.9931723581048721  0.7256158563327794  0.6143155156795845
  0.9695013127754988  0.9731483074437088  0.6020606528681500
  0.8923729449412630  0.6830902346980918  0.7509388320950349
  0.9914564408674955  0.5462019385904698  0.7408088515034125
  0.6050007563274447  0.6956786256662513  0.6806452346172908
  0.5179965740006466  0.8329752476483672  0.7007645013543260
  0.7059780873875048  0.9819528675457162  0.7353878160714780
  0.7159904650502960  0.7372048059191454  0.7424124313896788
  0.8187942862329626  0.8972297121046705  0.7009828718462091
  0.7873498093956146  0.6447817244145571  0.6848436828388769
  0.8431038322086913  0.0141876934926984  0.3353989779565534
  0.8428940230777777  0.5141531872854744  0.3353479638165062
  0.3428839330594546  0.5142609739078774  0.3354267563462195
  0.3430660637187742  0.0142038462191752  0.3355317501908141
  0.6302866765062829  0.3019195728632624  0.7740266864831060
  0.7036360515645729  0.2362302516961872  0.7730399848313829
 
  0.00000000E+00  0.00000000E+00  0.00000000E+00
  0.00000000E+00  0.00000000E+00  0.00000000E+00
  0.00000000E+00  0.00000000E+00  0.00000000E+00
  0.00000000E+00  0.00000000E+00  0.00000000E+00
  0.00000000E+00  0.00000000E+00  0.00000000E+00
  0.00000000E+00  0.00000000E+00  0.00000000E+00
  0.00000000E+00  0.00000000E+00  0.00000000E+00
  0.00000000E+00  0.00000000E+00  0.00000000E+00
  0.00000000E+00  0.00000000E+00  0.00000000E+00
  0.00000000E+00  0.00000000E+00  0.00000000E+00
  0.00000000E+00  0.00000000E+00  0.00000000E+00
  0.00000000E+00  0.00000000E+00  0.00000000E+00
  0.00000000E+00  0.00000000E+00  0.00000000E+00
  0.00000000E+00  0.00000000E+00  0.00000000E+00
  0.00000000E+00  0.00000000E+00  0.00000000E+00
  0.00000000E+00  0.00000000E+00  0.00000000E+00
  0.00000000E+00  0.00000000E+00  0.00000000E+00
  0.00000000E+00  0.00000000E+00  0.00000000E+00
  0.00000000E+00  0.00000000E+00  0.00000000E+00
  0.00000000E+00  0.00000000E+00  0.00000000E+00
  0.00000000E+00  0.00000000E+00  0.00000000E+00
  0.00000000E+00  0.00000000E+00  0.00000000E+00
  0.00000000E+00  0.00000000E+00  0.00000000E+00
  0.00000000E+00  0.00000000E+00  0.00000000E+00
  0.00000000E+00  0.00000000E+00  0.00000000E+00
  0.00000000E+00  0.00000000E+00  0.00000000E+00
  0.00000000E+00  0.00000000E+00  0.00000000E+00
  0.00000000E+00  0.00000000E+00  0.00000000E+00
  0.00000000E+00  0.00000000E+00  0.00000000E+00
  0.00000000E+00  0.00000000E+00  0.00000000E+00
  0.00000000E+00  0.00000000E+00  0.00000000E+00
  0.00000000E+00  0.00000000E+00  0.00000000E+00
  0.00000000E+00  0.00000000E+00  0.00000000E+00
  0.00000000E+00  0.00000000E+00  0.00000000E+00
  0.00000000E+00  0.00000000E+00  0.00000000E+00
  0.00000000E+00  0.00000000E+00  0.00000000E+00
  0.00000000E+00  0.00000000E+00  0.00000000E+00
  0.00000000E+00  0.00000000E+00  0.00000000E+00
  0.00000000E+00  0.00000000E+00  0.00000000E+00
  0.00000000E+00  0.00000000E+00  0.00000000E+00
  0.00000000E+00  0.00000000E+00  0.00000000E+00
  0.00000000E+00  0.00000000E+00  0.00000000E+00
  0.00000000E+00  0.00000000E+00  0.00000000E+00
  0.00000000E+00  0.00000000E+00  0.00000000E+00
  0.00000000E+00  0.00000000E+00  0.00000000E+00
  0.00000000E+00  0.00000000E+00  0.00000000E+00
  0.00000000E+00  0.00000000E+00  0.00000000E+00
  0.00000000E+00  0.00000000E+00  0.00000000E+00
  0.00000000E+00  0.00000000E+00  0.00000000E+00
  0.00000000E+00  0.00000000E+00  0.00000000E+00
  0.00000000E+00  0.00000000E+00  0.00000000E+00
  0.00000000E+00  0.00000000E+00  0.00000000E+00
  0.00000000E+00  0.00000000E+00  0.00000000E+00
  0.00000000E+00  0.00000000E+00  0.00000000E+00
  0.00000000E+00  0.00000000E+00  0.00000000E+00
  0.00000000E+00  0.00000000E+00  0.00000000E+00
  0.00000000E+00  0.00000000E+00  0.00000000E+00
  0.00000000E+00  0.00000000E+00  0.00000000E+00
  0.00000000E+00  0.00000000E+00  0.00000000E+00
  0.00000000E+00  0.00000000E+00  0.00000000E+00
  0.00000000E+00  0.00000000E+00  0.00000000E+00
  0.00000000E+00  0.00000000E+00  0.00000000E+00
  0.00000000E+00  0.00000000E+00  0.00000000E+00
  0.00000000E+00  0.00000000E+00  0.00000000E+00
  0.00000000E+00  0.00000000E+00  0.00000000E+00
  0.00000000E+00  0.00000000E+00  0.00000000E+00
  0.00000000E+00  0.00000000E+00  0.00000000E+00
  0.00000000E+00  0.00000000E+00  0.00000000E+00
  0.00000000E+00  0.00000000E+00  0.00000000E+00
  0.00000000E+00  0.00000000E+00  0.00000000E+00
  0.00000000E+00  0.00000000E+00  0.00000000E+00
  0.00000000E+00  0.00000000E+00  0.00000000E+00
  0.00000000E+00  0.00000000E+00  0.00000000E+00
  0.00000000E+00  0.00000000E+00  0.00000000E+00
  0.00000000E+00  0.00000000E+00  0.00000000E+00
  0.00000000E+00  0.00000000E+00  0.00000000E+00
  0.00000000E+00  0.00000000E+00  0.00000000E+00
  0.00000000E+00  0.00000000E+00  0.00000000E+00
  0.00000000E+00  0.00000000E+00  0.00000000E+00
  0.00000000E+00  0.00000000E+00  0.00000000E+00
  0.00000000E+00  0.00000000E+00  0.00000000E+00
  0.00000000E+00  0.00000000E+00  0.00000000E+00
  0.00000000E+00  0.00000000E+00  0.00000000E+00
  0.00000000E+00  0.00000000E+00  0.00000000E+00
  0.00000000E+00  0.00000000E+00  0.00000000E+00
  0.00000000E+00  0.00000000E+00  0.00000000E+00
  0.00000000E+00  0.00000000E+00  0.00000000E+00
  0.00000000E+00  0.00000000E+00  0.00000000E+00
  0.00000000E+00  0.00000000E+00  0.00000000E+00
  0.00000000E+00  0.00000000E+00  0.00000000E+00
  0.00000000E+00  0.00000000E+00  0.00000000E+00
  0.00000000E+00  0.00000000E+00  0.00000000E+00
  0.00000000E+00  0.00000000E+00  0.00000000E+00
  0.00000000E+00  0.00000000E+00  0.00000000E+00
  0.00000000E+00  0.00000000E+00  0.00000000E+00
  0.00000000E+00  0.00000000E+00  0.00000000E+00
  0.00000000E+00  0.00000000E+00  0.00000000E+00
  0.00000000E+00  0.00000000E+00  0.00000000E+00
  0.00000000E+00  0.00000000E+00  0.00000000E+00
  0.00000000E+00  0.00000000E+00  0.00000000E+00
  0.00000000E+00  0.00000000E+00  0.00000000E+00
  0.00000000E+00  0.00000000E+00  0.00000000E+00
  0.00000000E+00  0.00000000E+00  0.00000000E+00
  0.00000000E+00  0.00000000E+00  0.00000000E+00
  0.00000000E+00  0.00000000E+00  0.00000000E+00
  0.00000000E+00  0.00000000E+00  0.00000000E+00
  0.00000000E+00  0.00000000E+00  0.00000000E+00
  0.00000000E+00  0.00000000E+00  0.00000000E+00
  0.00000000E+00  0.00000000E+00  0.00000000E+00
  0.00000000E+00  0.00000000E+00  0.00000000E+00
  0.00000000E+00  0.00000000E+00  0.00000000E+00
  0.00000000E+00  0.00000000E+00  0.00000000E+00
  0.00000000E+00  0.00000000E+00  0.00000000E+00
  0.00000000E+00  0.00000000E+00  0.00000000E+00
  0.00000000E+00  0.00000000E+00  0.00000000E+00
  0.00000000E+00  0.00000000E+00  0.00000000E+00
  0.00000000E+00  0.00000000E+00  0.00000000E+00
  0.00000000E+00  0.00000000E+00  0.00000000E+00
  0.00000000E+00  0.00000000E+00  0.00000000E+00
  0.00000000E+00  0.00000000E+00  0.00000000E+00
  0.00000000E+00  0.00000000E+00  0.00000000E+00
  0.00000000E+00  0.00000000E+00  0.00000000E+00
  0.00000000E+00  0.00000000E+00  0.00000000E+00
  0.00000000E+00  0.00000000E+00  0.00000000E+00
  0.00000000E+00  0.00000000E+00  0.00000000E+00
  0.00000000E+00  0.00000000E+00  0.00000000E+00
  0.00000000E+00  0.00000000E+00  0.00000000E+00
  0.00000000E+00  0.00000000E+00  0.00000000E+00
  0.00000000E+00  0.00000000E+00  0.00000000E+00
  0.00000000E+00  0.00000000E+00  0.00000000E+00
  0.00000000E+00  0.00000000E+00  0.00000000E+00
  0.00000000E+00  0.00000000E+00  0.00000000E+00
  0.00000000E+00  0.00000000E+00  0.00000000E+00
  0.00000000E+00  0.00000000E+00  0.00000000E+00
  0.00000000E+00  0.00000000E+00  0.00000000E+00
  0.00000000E+00  0.00000000E+00  0.00000000E+00
  0.00000000E+00  0.00000000E+00  0.00000000E+00
  0.00000000E+00  0.00000000E+00  0.00000000E+00
  0.00000000E+00  0.00000000E+00  0.00000000E+00
  0.00000000E+00  0.00000000E+00  0.00000000E+00
  0.00000000E+00  0.00000000E+00  0.00000000E+00
  0.00000000E+00  0.00000000E+00  0.00000000E+00
  0.00000000E+00  0.00000000E+00  0.00000000E+00
  0.00000000E+00  0.00000000E+00  0.00000000E+00
  0.00000000E+00  0.00000000E+00  0.00000000E+00
  0.00000000E+00  0.00000000E+00  0.00000000E+00
  0.00000000E+00  0.00000000E+00  0.00000000E+00
  0.00000000E+00  0.00000000E+00  0.00000000E+00
  0.00000000E+00  0.00000000E+00  0.00000000E+00
  0.00000000E+00  0.00000000E+00  0.00000000E+00
  0.00000000E+00  0.00000000E+00  0.00000000E+00
  0.00000000E+00  0.00000000E+00  0.00000000E+00
  0.00000000E+00  0.00000000E+00  0.00000000E+00
  0.00000000E+00  0.00000000E+00  0.00000000E+00
  0.00000000E+00  0.00000000E+00  0.00000000E+00
  0.00000000E+00  0.00000000E+00  0.00000000E+00
  0.00000000E+00  0.00000000E+00  0.00000000E+00
  0.00000000E+00  0.00000000E+00  0.00000000E+00
  0.00000000E+00  0.00000000E+00  0.00000000E+00
  0.00000000E+00  0.00000000E+00  0.00000000E+00
  0.00000000E+00  0.00000000E+00  0.00000000E+00
  0.00000000E+00  0.00000000E+00  0.00000000E+00
  0.00000000E+00  0.00000000E+00  0.00000000E+00
  0.00000000E+00  0.00000000E+00  0.00000000E+00
  0.00000000E+00  0.00000000E+00  0.00000000E+00
  0.00000000E+00  0.00000000E+00  0.00000000E+00
  0.00000000E+00  0.00000000E+00  0.00000000E+00
  0.00000000E+00  0.00000000E+00  0.00000000E+00
  0.00000000E+00  0.00000000E+00  0.00000000E+00
  0.00000000E+00  0.00000000E+00  0.00000000E+00
  0.00000000E+00  0.00000000E+00  0.00000000E+00
  0.00000000E+00  0.00000000E+00  0.00000000E+00
  0.00000000E+00  0.00000000E+00  0.00000000E+00
  0.00000000E+00  0.00000000E+00  0.00000000E+00
  0.00000000E+00  0.00000000E+00  0.00000000E+00
  0.00000000E+00  0.00000000E+00  0.00000000E+00
  0.00000000E+00  0.00000000E+00  0.00000000E+00
  0.00000000E+00  0.00000000E+00  0.00000000E+00
  0.00000000E+00  0.00000000E+00  0.00000000E+00
  0.00000000E+00  0.00000000E+00  0.00000000E+00
  0.00000000E+00  0.00000000E+00  0.00000000E+00
  0.00000000E+00  0.00000000E+00  0.00000000E+00
  0.00000000E+00  0.00000000E+00  0.00000000E+00
  0.00000000E+00  0.00000000E+00  0.00000000E+00
  0.00000000E+00  0.00000000E+00  0.00000000E+00
  0.00000000E+00  0.00000000E+00  0.00000000E+00
  0.00000000E+00  0.00000000E+00  0.00000000E+00
  0.00000000E+00  0.00000000E+00  0.00000000E+00
  0.00000000E+00  0.00000000E+00  0.00000000E+00
  0.00000000E+00  0.00000000E+00  0.00000000E+00
  0.00000000E+00  0.00000000E+00  0.00000000E+00
  0.00000000E+00  0.00000000E+00  0.00000000E+00
  0.00000000E+00  0.00000000E+00  0.00000000E+00
  0.00000000E+00  0.00000000E+00  0.00000000E+00
  0.00000000E+00  0.00000000E+00  0.00000000E+00
  0.00000000E+00  0.00000000E+00  0.00000000E+00
  0.00000000E+00  0.00000000E+00  0.00000000E+00
  0.00000000E+00  0.00000000E+00  0.00000000E+00
  0.00000000E+00  0.00000000E+00  0.00000000E+00
  0.00000000E+00  0.00000000E+00  0.00000000E+00
  0.00000000E+00  0.00000000E+00  0.00000000E+00
  0.00000000E+00  0.00000000E+00  0.00000000E+00
  0.00000000E+00  0.00000000E+00  0.00000000E+00
  0.00000000E+00  0.00000000E+00  0.00000000E+00
  0.00000000E+00  0.00000000E+00  0.00000000E+00
  0.00000000E+00  0.00000000E+00  0.00000000E+00
  0.00000000E+00  0.00000000E+00  0.00000000E+00
  0.00000000E+00  0.00000000E+00  0.00000000E+00
  0.00000000E+00  0.00000000E+00  0.00000000E+00
  0.00000000E+00  0.00000000E+00  0.00000000E+00
  0.00000000E+00  0.00000000E+00  0.00000000E+00
  0.00000000E+00  0.00000000E+00  0.00000000E+00
  0.00000000E+00  0.00000000E+00  0.00000000E+00
  0.00000000E+00  0.00000000E+00  0.00000000E+00
  0.00000000E+00  0.00000000E+00  0.00000000E+00
  0.00000000E+00  0.00000000E+00  0.00000000E+00
  0.00000000E+00  0.00000000E+00  0.00000000E+00
  0.00000000E+00  0.00000000E+00  0.00000000E+00
  0.00000000E+00  0.00000000E+00  0.00000000E+00
  0.00000000E+00  0.00000000E+00  0.00000000E+00
  0.00000000E+00  0.00000000E+00  0.00000000E+00
  0.00000000E+00  0.00000000E+00  0.00000000E+00
  0.00000000E+00  0.00000000E+00  0.00000000E+00
  0.00000000E+00  0.00000000E+00  0.00000000E+00
  0.00000000E+00  0.00000000E+00  0.00000000E+00
  0.00000000E+00  0.00000000E+00  0.00000000E+00
  0.00000000E+00  0.00000000E+00  0.00000000E+00
  0.00000000E+00  0.00000000E+00  0.00000000E+00
  0.00000000E+00  0.00000000E+00  0.00000000E+00
  0.00000000E+00  0.00000000E+00  0.00000000E+00
  0.00000000E+00  0.00000000E+00  0.00000000E+00
  0.00000000E+00  0.00000000E+00  0.00000000E+00
  0.00000000E+00  0.00000000E+00  0.00000000E+00
  0.00000000E+00  0.00000000E+00  0.00000000E+00
  0.00000000E+00  0.00000000E+00  0.00000000E+00
  0.00000000E+00  0.00000000E+00  0.00000000E+00
  0.00000000E+00  0.00000000E+00  0.00000000E+00
  0.00000000E+00  0.00000000E+00  0.00000000E+00
  0.00000000E+00  0.00000000E+00  0.00000000E+00
  0.00000000E+00  0.00000000E+00  0.00000000E+00
  0.00000000E+00  0.00000000E+00  0.00000000E+00
  0.00000000E+00  0.00000000E+00  0.00000000E+00
