  Zr O 
1.00000000000000     
    14.6087084399999991    0.0000000000000000    0.0000000000000000
    -6.0995943700000002   13.5475736500000004    0.0000000000000000
     0.0000000000000000    0.0000000000000000   32.4658957799999968
    80   160
Direct
  0.1072999603052074  0.1107509020434509  0.3626799193472057
  0.3752027684162077  0.1411823791572757  0.3611695660169971
  0.3729099757341820  0.4229177172845584  0.3686418726412654
  0.0769991309338657  0.3675992767274789  0.3710084865678097
  0.4150241426252059  0.2799622327605109  0.4516720934993830
  0.1984057059499032  0.3151122314452724  0.4480415241420442
  0.1804103960193958  0.0775491807406282  0.4568444542800962
  0.4012433377810585  0.0448202538653537  0.4606724581751017
  0.2344424391283706  0.4480134719484199  0.5408472105800165
  0.0161400524477959  0.4843520754937831  0.5390958182087914
  0.4998527713809398  0.2495595232550252  0.5457642774097494
  0.2182112126389491  0.2133152672787147  0.5475478657953993
  0.0540213013314645  0.1200873481525470  0.6298017852645387
  0.3331684740147809  0.1527996895219179  0.6259511331776788
  0.3194461525994403  0.4176580809241136  0.6349304548251108
  0.0360689408296837  0.3824714672745204  0.6385895313657872
  0.3617693200060041  0.2748082895647109  0.7179695227724865
  0.1576187987612192  0.3300539242013528  0.7155954824003624
  0.1272862880143193  0.0868045207083762  0.7239161898467646
  0.3595087274749019  0.0565075680308400  0.7254462343065057
  0.1072999601170486  0.6107509024125212  0.3626799193472057
  0.3752027682280489  0.6411823795263457  0.3611695660169971
  0.3729099755460161  0.9229177176536283  0.3686418726412654
  0.0769991314302224  0.8675992770965417  0.3710084865678097
  0.4150241424370400  0.7799622331295811  0.4516720934993830
  0.1984057057617373  0.8151122318143424  0.4480415241420442
  0.1804103962075546  0.5775491803715581  0.4568444542800962
  0.4012433379692174  0.5448202534962836  0.4606724581751017
  0.2344424386320138  0.9480134715793495  0.5408472105800165
  0.0161400522596370  0.9843520758628529  0.5390958182087914
  0.4998527715691057  0.7495595228859550  0.5457642774097494
  0.2182112128271150  0.7133152669096444  0.5475478657953993
  0.0540213015196305  0.6200873477834768  0.6298017852645387
  0.3331684742029469  0.6527996891528477  0.6259511331776788
  0.3194461527875991  0.9176580805550434  0.6349304548251108
  0.0360689410178425  0.8824714669054502  0.6385895313657872
  0.3617693201941701  0.7748082891956405  0.7179695227724865
  0.1576187989493851  0.8300539238322829  0.7155954824003624
  0.1272862875179555  0.5868045203393061  0.7239161898467646
  0.3595087272867359  0.5565075683999103  0.7254462343065057
  0.6072999603052075  0.1107509020434509  0.3626799193472057
  0.8752027684162077  0.1411823791572757  0.3611695660169971
  0.8729099757341822  0.4229177172845583  0.3686418726412654
  0.5769991309338658  0.3675992767274789  0.3710084865678097
  0.9150241426252061  0.2799622327605109  0.4516720934993830
  0.6984057059499030  0.3151122314452724  0.4480415241420442
  0.6804103960193956  0.0775491807406282  0.4568444542800962
  0.9012433377810585  0.0448202538653537  0.4606724581751017
  0.7344424391283702  0.4480134719484199  0.5408472105800165
  0.5161400524477958  0.4843520754937831  0.5390958182087914
  0.9998527713809398  0.2495595232550252  0.5457642774097494
  0.7182112126389489  0.2133152672787147  0.5475478657953993
  0.5540213013314648  0.1200873481525470  0.6298017852645387
  0.8331684740147810  0.1527996895219179  0.6259511331776788
  0.8194461525994400  0.4176580809241136  0.6349304548251108
  0.5360689408296838  0.3824714672745204  0.6385895313657872
  0.8617693200060043  0.2748082895647109  0.7179695227724865
  0.6576187987612191  0.3300539242013528  0.7155954824003624
  0.6272862880143193  0.0868045207083762  0.7239161898467646
  0.8595087274749016  0.0565075680308400  0.7254462343065057
  0.6072999601170487  0.6107509024125212  0.3626799193472057
  0.8752027682280489  0.6411823795263457  0.3611695660169971
  0.8729099755460162  0.9229177176536283  0.3686418726412654
  0.5769991314302225  0.8675992770965417  0.3710084865678097
  0.9150241424370402  0.7799622331295811  0.4516720934993830
  0.6984057057617371  0.8151122318143424  0.4480415241420442
  0.6804103962075544  0.5775491803715581  0.4568444542800962
  0.9012433379692173  0.5448202534962836  0.4606724581751017
  0.7344424386320134  0.9480134715793495  0.5408472105800165
  0.5161400522596370  0.9843520758628529  0.5390958182087914
  0.9998527715691057  0.7495595228859550  0.5457642774097494
  0.7182112128271149  0.7133152669096444  0.5475478657953993
  0.5540213015196307  0.6200873477834768  0.6298017852645387
  0.8331684742029469  0.6527996891528477  0.6259511331776788
  0.8194461527875988  0.9176580805550434  0.6349304548251108
  0.5360689410178426  0.8824714669054502  0.6385895313657872
  0.8617693201941702  0.7748082891956405  0.7179695227724865
  0.6576187989493850  0.8300539238322829  0.7155954824003624
  0.6272862875179555  0.5868045203393061  0.7239161898467646
  0.8595087272867357  0.5565075683999103  0.7254462343065057
  0.1332582265746868  0.0059689037778586  0.4018946551397908
  0.2181988781299362  0.3661521173115643  0.3825003874865902
  0.3442342672365676  0.0153678282895171  0.3310424656226642
  0.2448769086772192  0.1532202571804900  0.3416956173515633
  0.4183450511746648  0.3018822266173740  0.3812778210715120
  0.4479630891219871  0.0541491356300598  0.3979564111256500
  0.0314071462082812  0.2142568009484766  0.3475222399610441
  0.0226551989831015  0.4641564239401326  0.3395728532466515
  0.4439043559615499  0.1765955828508128  0.4903745631531272
  0.0376710753592925  0.0432766737127106  0.4766665391054131
  0.1526998132371110  0.1823197248015414  0.4187291303569167
  0.0609778626932887  0.3186209200305279  0.4320697212832545
  0.2410437716527196  0.4716434307829289  0.4708552709868584
  0.2643985499321383  0.2237504121747859  0.4830709797281588
  0.3563347177453388  0.3876955037176995  0.4380853724217594
  0.3354974923149289  0.1352524710587512  0.4250661838103050
  0.2604301099679574  0.3429483656497907  0.5797765521687063
  0.3553411594472415  0.2126448018970816  0.5638597850409295
  0.4741103145278239  0.3547873036377951  0.5067627900426737
  0.3790288096363836  0.4850060784735952  0.5227594134823421
  0.0583022340805908  0.1417510576511971  0.5591551179080985
  0.0814467986708572  0.3927345269659053  0.5733121160049728
  0.1760565421825207  0.0558733964016741  0.5274894555384270
  0.1528366743340470  0.3047856851496173  0.5132875909341065
  0.0820647441538128  0.0153995335685698  0.6678328924941690
  0.1734394720598741  0.3786085434213324  0.6544861239042651
  0.2902721483700378  0.0209851056701776  0.5962723685542624
  0.1968521025824570  0.1547100168235468  0.6099951238030111
  0.3781681876993364  0.3099880197339519  0.6485321062570849
  0.3989842279084676  0.0623343922203251  0.6615466271496198
  0.4932764960335682  0.2258784634682962  0.6157722344835638
  0.4700438946857186  0.4739330740142267  0.6035621119770868
  0.3908401299907850  0.1825049602398885  0.7555064821166733
  0.4896121526029389  0.0440316958051787  0.7449458092620140
  0.1010215222680588  0.1914765386216611  0.6848241493856504
  0.0164865706276486  0.3317231300943364  0.7040659170983842
  0.2033044072216693  0.4834876978373951  0.7390794262827808
  0.2119870952202245  0.2334844727937792  0.7470352195059478
  0.3161684250836739  0.3957873692557849  0.7053077277294754
  0.2867099824345298  0.1436027628037576  0.6886685317925527
  0.1332582267628527  0.5059689034087885  0.4018946551397908
  0.2181988783180950  0.8661521169424943  0.3825003874865902
  0.3442342677329244  0.5153678286585871  0.3310424656226642
  0.2448769088653852  0.6532202568114200  0.3416956173515633
  0.4183450516710286  0.8018822269864442  0.3812778210715120
  0.4479630886256304  0.5541491352609897  0.3979564111256500
  0.0314071467046380  0.7142568013175540  0.3475222399610441
  0.0226551984867447  0.9641564235710622  0.3395728532466515
  0.4439043561497158  0.6765955824817427  0.4903745631531272
  0.0376710748629286  0.5432766733436404  0.4766665391054131
  0.1526998137334749  0.6823197251706115  0.4187291303569167
  0.0609778628814476  0.8186209196614577  0.4320697212832545
  0.2410437718408784  0.9716434304138593  0.4708552709868584
  0.2643985494357816  0.7237504118057159  0.4830709797281588
  0.3563347182417027  0.8876955040867697  0.4380853724217594
  0.3354974925030949  0.6352524706896812  0.4250661838103050
  0.2604301101561162  0.8429483652807134  0.5797765521687063
  0.3553411589508848  0.7126448015280116  0.5638597850409295
  0.4741103143396579  0.8547873040068648  0.5067627900426737
  0.3790288101327475  0.9850060788426652  0.5227594134823421
  0.0583022335842269  0.6417510572821342  0.5591551179080985
  0.0814467981744934  0.8927345265968351  0.5733121160049728
  0.1760565416861640  0.5558733960326038  0.5274894555384270
  0.1528366745222058  0.8047856847805472  0.5132875909341065
  0.0820647436574489  0.5153995331995068  0.6678328924941690
  0.1734394715635103  0.8786085430522623  0.6544861239042651
  0.2902721485581966  0.5209851053011074  0.5962723685542624
  0.1968521020861003  0.6547100164544765  0.6099951238030111
  0.3781681872029796  0.8099880193648819  0.6485321062570849
  0.3989842284048243  0.5623343925893954  0.6615466271496198
  0.4932764955372044  0.7258784630992258  0.6157722344835638
  0.4700438951820753  0.9739330743832969  0.6035621119770868
  0.3908401301789510  0.6825049598708185  0.7555064821166733
  0.4896121530992956  0.5440316961742488  0.7449458092620140
  0.1010215224562247  0.6914765382525911  0.6848241493856504
  0.0164865701312847  0.8317231297252663  0.7040659170983842
  0.2033044067253054  0.9834876974683249  0.7390794262827808
  0.2119870954083905  0.7334844724247093  0.7470352195059478
  0.3161684245873171  0.8957873688867147  0.7053077277294754
  0.2867099819381659  0.6436027624346871  0.6886685317925527
  0.6332582265746867  0.0059689037778586  0.4018946551397908
  0.7181988788144589  0.3661521173115643  0.3825003874865902
  0.8442342672365678  0.0153678282895171  0.3310424656226642
  0.7448769086772192  0.1532202571804900  0.3416956173515633
  0.9183450511746645  0.3018822266173740  0.3812778210715120
  0.9479630891219871  0.0541491356300598  0.3979564111256500
  0.5314071462082810  0.2142568009484766  0.3475222399610441
  0.5226551989831014  0.4641564239401326  0.3395728532466515
  0.9439043559615494  0.1765955828508128  0.4903745631531272
  0.5376710753592924  0.0432766737127106  0.4766665391054131
  0.6526998132371111  0.1823197248015414  0.4187291303569167
  0.5609778626932889  0.3186209200305279  0.4320697212832545
  0.7410437716527194  0.4716434307829289  0.4708552709868584
  0.7643985499321383  0.2237504121747859  0.4830709797281588
  0.8563347177453388  0.3876955037176995  0.4380853724217594
  0.8354974923149290  0.1352524710587512  0.4250661838103050
  0.7604301099679571  0.3429483656497907  0.5797765521687063
  0.8553411594472413  0.2126448018970816  0.5638597850409295
  0.9741103145278236  0.3547873036377951  0.5067627900426737
  0.8790288096363834  0.4850060784735952  0.5227594134823421
  0.5583022340805907  0.1417510576511971  0.5591551179080985
  0.5814467986708500  0.3927345269659053  0.5733121160049728
  0.6760565421825210  0.0558733964016741  0.5274894555384270
  0.6528366743340469  0.3047856851496173  0.5132875909341065
  0.5820647441538129  0.0153995335685698  0.6678328924941690
  0.6734394720598746  0.3786085434213324  0.6544861239042651
  0.7902721483700373  0.0209851056701776  0.5962723685542624
  0.6968521025824571  0.1547100168235468  0.6099951238030111
  0.8781681876993360  0.3099880197339519  0.6485321062570849
  0.8989842279084675  0.0623343922203251  0.6615466271496198
  0.9932764960335678  0.2258784634682962  0.6157722344835638
  0.9700438946857188  0.4739330740142267  0.6035621119770868
  0.8908401306753079  0.1825049602398885  0.7555064821166733
  0.9896121526029390  0.0440316958051787  0.7449458092620140
  0.6010215222680589  0.1914765386216611  0.6848241493856504
  0.5164865706276487  0.3317231300943364  0.7040659170983842
  0.7033044072216691  0.4834876978373951  0.7390794262827808
  0.7119870952202250  0.2334844727937792  0.7470352195059478
  0.8161684250836734  0.3957873692557849  0.7053077277294754
  0.7867099824345298  0.1436027628037576  0.6886685317925527
  0.6332582267628526  0.5059689034087885  0.4018946551397908
  0.7181988783180950  0.8661521169424943  0.3825003874865902
  0.8442342677329245  0.5153678286585871  0.3310424656226642
  0.7448769088653852  0.6532202568114200  0.3416956173515633
  0.9183450516710283  0.8018822269864442  0.3812778210715120
  0.9479630893101531  0.5541491352609897  0.3979564111256500
  0.5314071467046377  0.7142568013175540  0.3475222399610441
  0.5226551984867447  0.9641564235710622  0.3395728532466515
  0.9439043561497154  0.6765955824817427  0.4903745631531272
  0.5376710748629285  0.5432766733436404  0.4766665391054131
  0.6526998137334750  0.6823197251706115  0.4187291303569167
  0.5609778628814477  0.8186209196614577  0.4320697212832545
  0.7410437718408782  0.9716434304138593  0.4708552709868584
  0.7643985494357816  0.7237504118057159  0.4830709797281588
  0.8563347182417026  0.8876955040867697  0.4380853724217594
  0.8354974925030949  0.6352524706896812  0.4250661838103050
  0.7604301101561159  0.8429483652807134  0.5797765521687063
  0.8553411589508846  0.7126448015280116  0.5638597850409295
  0.9741103150241803  0.8547873040068648  0.5067627900426737
  0.8790288101327473  0.9850060788426652  0.5227594134823421
  0.5583022335842268  0.6417510572821342  0.5591551179080985
  0.5814467981744933  0.8927345265968351  0.5733121160049728
  0.6760565416861642  0.5558733960326038  0.5274894555384270
  0.6528366745222057  0.8047856847805472  0.5132875909341065
  0.5820647436574491  0.5153995331995068  0.6678328924941690
  0.6734394715635108  0.8786085430522623  0.6544861239042651
  0.7902721485581962  0.5209851053011074  0.5962723685542624
  0.6968521020861004  0.6547100164544765  0.6099951238030111
  0.8781681872029793  0.8099880193648819  0.6485321062570849
  0.8989842284048243  0.5623343925893954  0.6615466271496198
  0.9932764955372040  0.7258784630992258  0.6157722344835638
  0.9700438951820756  0.9739330743832969  0.6035621119770868
  0.8908401301789511  0.6825049598708185  0.7555064821166733
  0.9896121530992957  0.5440316961742488  0.7449458092620140
  0.6010215224562178  0.6914765382525911  0.6848241493856504
  0.5164865701312849  0.8317231297252663  0.7040659170983842
  0.7033044067253053  0.9834876974683249  0.7390794262827808
  0.7119870954083909  0.7334844724247093  0.7470352195059478
  0.8161684245873166  0.8957873688867147  0.7053077277294754
  0.7867099819381660  0.6436027624346871  0.6886685317925527
 
  0.00000000E+00  0.00000000E+00  0.00000000E+00
  0.00000000E+00  0.00000000E+00  0.00000000E+00
  0.00000000E+00  0.00000000E+00  0.00000000E+00
  0.00000000E+00  0.00000000E+00  0.00000000E+00
  0.00000000E+00  0.00000000E+00  0.00000000E+00
  0.00000000E+00  0.00000000E+00  0.00000000E+00
  0.00000000E+00  0.00000000E+00  0.00000000E+00
  0.00000000E+00  0.00000000E+00  0.00000000E+00
  0.00000000E+00  0.00000000E+00  0.00000000E+00
  0.00000000E+00  0.00000000E+00  0.00000000E+00
  0.00000000E+00  0.00000000E+00  0.00000000E+00
  0.00000000E+00  0.00000000E+00  0.00000000E+00
  0.00000000E+00  0.00000000E+00  0.00000000E+00
  0.00000000E+00  0.00000000E+00  0.00000000E+00
  0.00000000E+00  0.00000000E+00  0.00000000E+00
  0.00000000E+00  0.00000000E+00  0.00000000E+00
  0.00000000E+00  0.00000000E+00  0.00000000E+00
  0.00000000E+00  0.00000000E+00  0.00000000E+00
  0.00000000E+00  0.00000000E+00  0.00000000E+00
  0.00000000E+00  0.00000000E+00  0.00000000E+00
  0.00000000E+00  0.00000000E+00  0.00000000E+00
  0.00000000E+00  0.00000000E+00  0.00000000E+00
  0.00000000E+00  0.00000000E+00  0.00000000E+00
  0.00000000E+00  0.00000000E+00  0.00000000E+00
  0.00000000E+00  0.00000000E+00  0.00000000E+00
  0.00000000E+00  0.00000000E+00  0.00000000E+00
  0.00000000E+00  0.00000000E+00  0.00000000E+00
  0.00000000E+00  0.00000000E+00  0.00000000E+00
  0.00000000E+00  0.00000000E+00  0.00000000E+00
  0.00000000E+00  0.00000000E+00  0.00000000E+00
  0.00000000E+00  0.00000000E+00  0.00000000E+00
  0.00000000E+00  0.00000000E+00  0.00000000E+00
  0.00000000E+00  0.00000000E+00  0.00000000E+00
  0.00000000E+00  0.00000000E+00  0.00000000E+00
  0.00000000E+00  0.00000000E+00  0.00000000E+00
  0.00000000E+00  0.00000000E+00  0.00000000E+00
  0.00000000E+00  0.00000000E+00  0.00000000E+00
  0.00000000E+00  0.00000000E+00  0.00000000E+00
  0.00000000E+00  0.00000000E+00  0.00000000E+00
  0.00000000E+00  0.00000000E+00  0.00000000E+00
  0.00000000E+00  0.00000000E+00  0.00000000E+00
  0.00000000E+00  0.00000000E+00  0.00000000E+00
  0.00000000E+00  0.00000000E+00  0.00000000E+00
  0.00000000E+00  0.00000000E+00  0.00000000E+00
  0.00000000E+00  0.00000000E+00  0.00000000E+00
  0.00000000E+00  0.00000000E+00  0.00000000E+00
  0.00000000E+00  0.00000000E+00  0.00000000E+00
  0.00000000E+00  0.00000000E+00  0.00000000E+00
  0.00000000E+00  0.00000000E+00  0.00000000E+00
  0.00000000E+00  0.00000000E+00  0.00000000E+00
  0.00000000E+00  0.00000000E+00  0.00000000E+00
  0.00000000E+00  0.00000000E+00  0.00000000E+00
  0.00000000E+00  0.00000000E+00  0.00000000E+00
  0.00000000E+00  0.00000000E+00  0.00000000E+00
  0.00000000E+00  0.00000000E+00  0.00000000E+00
  0.00000000E+00  0.00000000E+00  0.00000000E+00
  0.00000000E+00  0.00000000E+00  0.00000000E+00
  0.00000000E+00  0.00000000E+00  0.00000000E+00
  0.00000000E+00  0.00000000E+00  0.00000000E+00
  0.00000000E+00  0.00000000E+00  0.00000000E+00
  0.00000000E+00  0.00000000E+00  0.00000000E+00
  0.00000000E+00  0.00000000E+00  0.00000000E+00
  0.00000000E+00  0.00000000E+00  0.00000000E+00
  0.00000000E+00  0.00000000E+00  0.00000000E+00
  0.00000000E+00  0.00000000E+00  0.00000000E+00
  0.00000000E+00  0.00000000E+00  0.00000000E+00
  0.00000000E+00  0.00000000E+00  0.00000000E+00
  0.00000000E+00  0.00000000E+00  0.00000000E+00
  0.00000000E+00  0.00000000E+00  0.00000000E+00
  0.00000000E+00  0.00000000E+00  0.00000000E+00
  0.00000000E+00  0.00000000E+00  0.00000000E+00
  0.00000000E+00  0.00000000E+00  0.00000000E+00
  0.00000000E+00  0.00000000E+00  0.00000000E+00
  0.00000000E+00  0.00000000E+00  0.00000000E+00
  0.00000000E+00  0.00000000E+00  0.00000000E+00
  0.00000000E+00  0.00000000E+00  0.00000000E+00
  0.00000000E+00  0.00000000E+00  0.00000000E+00
  0.00000000E+00  0.00000000E+00  0.00000000E+00
  0.00000000E+00  0.00000000E+00  0.00000000E+00
  0.00000000E+00  0.00000000E+00  0.00000000E+00
  0.00000000E+00  0.00000000E+00  0.00000000E+00
  0.00000000E+00  0.00000000E+00  0.00000000E+00
  0.00000000E+00  0.00000000E+00  0.00000000E+00
  0.00000000E+00  0.00000000E+00  0.00000000E+00
  0.00000000E+00  0.00000000E+00  0.00000000E+00
  0.00000000E+00  0.00000000E+00  0.00000000E+00
  0.00000000E+00  0.00000000E+00  0.00000000E+00
  0.00000000E+00  0.00000000E+00  0.00000000E+00
  0.00000000E+00  0.00000000E+00  0.00000000E+00
  0.00000000E+00  0.00000000E+00  0.00000000E+00
  0.00000000E+00  0.00000000E+00  0.00000000E+00
  0.00000000E+00  0.00000000E+00  0.00000000E+00
  0.00000000E+00  0.00000000E+00  0.00000000E+00
  0.00000000E+00  0.00000000E+00  0.00000000E+00
  0.00000000E+00  0.00000000E+00  0.00000000E+00
  0.00000000E+00  0.00000000E+00  0.00000000E+00
  0.00000000E+00  0.00000000E+00  0.00000000E+00
  0.00000000E+00  0.00000000E+00  0.00000000E+00
  0.00000000E+00  0.00000000E+00  0.00000000E+00
  0.00000000E+00  0.00000000E+00  0.00000000E+00
  0.00000000E+00  0.00000000E+00  0.00000000E+00
  0.00000000E+00  0.00000000E+00  0.00000000E+00
  0.00000000E+00  0.00000000E+00  0.00000000E+00
  0.00000000E+00  0.00000000E+00  0.00000000E+00
  0.00000000E+00  0.00000000E+00  0.00000000E+00
  0.00000000E+00  0.00000000E+00  0.00000000E+00
  0.00000000E+00  0.00000000E+00  0.00000000E+00
  0.00000000E+00  0.00000000E+00  0.00000000E+00
  0.00000000E+00  0.00000000E+00  0.00000000E+00
  0.00000000E+00  0.00000000E+00  0.00000000E+00
  0.00000000E+00  0.00000000E+00  0.00000000E+00
  0.00000000E+00  0.00000000E+00  0.00000000E+00
  0.00000000E+00  0.00000000E+00  0.00000000E+00
  0.00000000E+00  0.00000000E+00  0.00000000E+00
  0.00000000E+00  0.00000000E+00  0.00000000E+00
  0.00000000E+00  0.00000000E+00  0.00000000E+00
  0.00000000E+00  0.00000000E+00  0.00000000E+00
  0.00000000E+00  0.00000000E+00  0.00000000E+00
  0.00000000E+00  0.00000000E+00  0.00000000E+00
  0.00000000E+00  0.00000000E+00  0.00000000E+00
  0.00000000E+00  0.00000000E+00  0.00000000E+00
  0.00000000E+00  0.00000000E+00  0.00000000E+00
  0.00000000E+00  0.00000000E+00  0.00000000E+00
  0.00000000E+00  0.00000000E+00  0.00000000E+00
  0.00000000E+00  0.00000000E+00  0.00000000E+00
  0.00000000E+00  0.00000000E+00  0.00000000E+00
  0.00000000E+00  0.00000000E+00  0.00000000E+00
  0.00000000E+00  0.00000000E+00  0.00000000E+00
  0.00000000E+00  0.00000000E+00  0.00000000E+00
  0.00000000E+00  0.00000000E+00  0.00000000E+00
  0.00000000E+00  0.00000000E+00  0.00000000E+00
  0.00000000E+00  0.00000000E+00  0.00000000E+00
  0.00000000E+00  0.00000000E+00  0.00000000E+00
  0.00000000E+00  0.00000000E+00  0.00000000E+00
  0.00000000E+00  0.00000000E+00  0.00000000E+00
  0.00000000E+00  0.00000000E+00  0.00000000E+00
  0.00000000E+00  0.00000000E+00  0.00000000E+00
  0.00000000E+00  0.00000000E+00  0.00000000E+00
  0.00000000E+00  0.00000000E+00  0.00000000E+00
  0.00000000E+00  0.00000000E+00  0.00000000E+00
  0.00000000E+00  0.00000000E+00  0.00000000E+00
  0.00000000E+00  0.00000000E+00  0.00000000E+00
  0.00000000E+00  0.00000000E+00  0.00000000E+00
  0.00000000E+00  0.00000000E+00  0.00000000E+00
  0.00000000E+00  0.00000000E+00  0.00000000E+00
  0.00000000E+00  0.00000000E+00  0.00000000E+00
  0.00000000E+00  0.00000000E+00  0.00000000E+00
  0.00000000E+00  0.00000000E+00  0.00000000E+00
  0.00000000E+00  0.00000000E+00  0.00000000E+00
  0.00000000E+00  0.00000000E+00  0.00000000E+00
  0.00000000E+00  0.00000000E+00  0.00000000E+00
  0.00000000E+00  0.00000000E+00  0.00000000E+00
  0.00000000E+00  0.00000000E+00  0.00000000E+00
  0.00000000E+00  0.00000000E+00  0.00000000E+00
  0.00000000E+00  0.00000000E+00  0.00000000E+00
  0.00000000E+00  0.00000000E+00  0.00000000E+00
  0.00000000E+00  0.00000000E+00  0.00000000E+00
  0.00000000E+00  0.00000000E+00  0.00000000E+00
  0.00000000E+00  0.00000000E+00  0.00000000E+00
  0.00000000E+00  0.00000000E+00  0.00000000E+00
  0.00000000E+00  0.00000000E+00  0.00000000E+00
  0.00000000E+00  0.00000000E+00  0.00000000E+00
  0.00000000E+00  0.00000000E+00  0.00000000E+00
  0.00000000E+00  0.00000000E+00  0.00000000E+00
  0.00000000E+00  0.00000000E+00  0.00000000E+00
  0.00000000E+00  0.00000000E+00  0.00000000E+00
  0.00000000E+00  0.00000000E+00  0.00000000E+00
  0.00000000E+00  0.00000000E+00  0.00000000E+00
  0.00000000E+00  0.00000000E+00  0.00000000E+00
  0.00000000E+00  0.00000000E+00  0.00000000E+00
  0.00000000E+00  0.00000000E+00  0.00000000E+00
  0.00000000E+00  0.00000000E+00  0.00000000E+00
  0.00000000E+00  0.00000000E+00  0.00000000E+00
  0.00000000E+00  0.00000000E+00  0.00000000E+00
  0.00000000E+00  0.00000000E+00  0.00000000E+00
  0.00000000E+00  0.00000000E+00  0.00000000E+00
  0.00000000E+00  0.00000000E+00  0.00000000E+00
  0.00000000E+00  0.00000000E+00  0.00000000E+00
  0.00000000E+00  0.00000000E+00  0.00000000E+00
  0.00000000E+00  0.00000000E+00  0.00000000E+00
  0.00000000E+00  0.00000000E+00  0.00000000E+00
  0.00000000E+00  0.00000000E+00  0.00000000E+00
  0.00000000E+00  0.00000000E+00  0.00000000E+00
  0.00000000E+00  0.00000000E+00  0.00000000E+00
  0.00000000E+00  0.00000000E+00  0.00000000E+00
  0.00000000E+00  0.00000000E+00  0.00000000E+00
  0.00000000E+00  0.00000000E+00  0.00000000E+00
  0.00000000E+00  0.00000000E+00  0.00000000E+00
  0.00000000E+00  0.00000000E+00  0.00000000E+00
  0.00000000E+00  0.00000000E+00  0.00000000E+00
  0.00000000E+00  0.00000000E+00  0.00000000E+00
  0.00000000E+00  0.00000000E+00  0.00000000E+00
  0.00000000E+00  0.00000000E+00  0.00000000E+00
  0.00000000E+00  0.00000000E+00  0.00000000E+00
  0.00000000E+00  0.00000000E+00  0.00000000E+00
  0.00000000E+00  0.00000000E+00  0.00000000E+00
  0.00000000E+00  0.00000000E+00  0.00000000E+00
  0.00000000E+00  0.00000000E+00  0.00000000E+00
  0.00000000E+00  0.00000000E+00  0.00000000E+00
  0.00000000E+00  0.00000000E+00  0.00000000E+00
  0.00000000E+00  0.00000000E+00  0.00000000E+00
  0.00000000E+00  0.00000000E+00  0.00000000E+00
  0.00000000E+00  0.00000000E+00  0.00000000E+00
  0.00000000E+00  0.00000000E+00  0.00000000E+00
  0.00000000E+00  0.00000000E+00  0.00000000E+00
  0.00000000E+00  0.00000000E+00  0.00000000E+00
  0.00000000E+00  0.00000000E+00  0.00000000E+00
  0.00000000E+00  0.00000000E+00  0.00000000E+00
  0.00000000E+00  0.00000000E+00  0.00000000E+00
  0.00000000E+00  0.00000000E+00  0.00000000E+00
  0.00000000E+00  0.00000000E+00  0.00000000E+00
  0.00000000E+00  0.00000000E+00  0.00000000E+00
  0.00000000E+00  0.00000000E+00  0.00000000E+00
  0.00000000E+00  0.00000000E+00  0.00000000E+00
  0.00000000E+00  0.00000000E+00  0.00000000E+00
  0.00000000E+00  0.00000000E+00  0.00000000E+00
  0.00000000E+00  0.00000000E+00  0.00000000E+00
  0.00000000E+00  0.00000000E+00  0.00000000E+00
  0.00000000E+00  0.00000000E+00  0.00000000E+00
  0.00000000E+00  0.00000000E+00  0.00000000E+00
  0.00000000E+00  0.00000000E+00  0.00000000E+00
  0.00000000E+00  0.00000000E+00  0.00000000E+00
  0.00000000E+00  0.00000000E+00  0.00000000E+00
  0.00000000E+00  0.00000000E+00  0.00000000E+00
  0.00000000E+00  0.00000000E+00  0.00000000E+00
  0.00000000E+00  0.00000000E+00  0.00000000E+00
  0.00000000E+00  0.00000000E+00  0.00000000E+00
  0.00000000E+00  0.00000000E+00  0.00000000E+00
  0.00000000E+00  0.00000000E+00  0.00000000E+00
  0.00000000E+00  0.00000000E+00  0.00000000E+00
  0.00000000E+00  0.00000000E+00  0.00000000E+00
  0.00000000E+00  0.00000000E+00  0.00000000E+00
  0.00000000E+00  0.00000000E+00  0.00000000E+00
  0.00000000E+00  0.00000000E+00  0.00000000E+00
  0.00000000E+00  0.00000000E+00  0.00000000E+00
  0.00000000E+00  0.00000000E+00  0.00000000E+00
  0.00000000E+00  0.00000000E+00  0.00000000E+00
  0.00000000E+00  0.00000000E+00  0.00000000E+00
  0.00000000E+00  0.00000000E+00  0.00000000E+00
  0.00000000E+00  0.00000000E+00  0.00000000E+00
