Hf  O  F  H                             
   1.00000000000000     
    14.6106902099999996    0.0000000000000000    0.0000000000000000
    -6.0999520900000004   13.5497369200000009    0.0000000000000000
     0.0000000000000000    0.0000000000000000   32.4676209000000000
   Hf   O    F    H 
    80   160     3     3
Selective dynamics
Direct
  0.1048163482780637  0.1061689485554993  0.3670806074368045   F   F   F
  0.3732623612619577  0.1389233751263106  0.3650114703045588   F   F   F
  0.3737743268675473  0.4225943611162037  0.3725879111148558   F   F   F
  0.0744046443694870  0.3629124597055267  0.3752116716380627   F   F   F
  0.4129342004055374  0.2772409621071787  0.4538525553315154   F   F   F
  0.1984387749950471  0.3145780215635341  0.4495369052433418   F   F   F
  0.1809177729260796  0.0772327211353740  0.4589466093279384   F   F   F
  0.3999867945161597  0.0425280634895131  0.4631158645196578   F   F   F
  0.2330362736705780  0.4462873388393405  0.5411192918665648   F   F   F
  0.0165350607331476  0.4845897707658224  0.5388003781022306   F   F   F
  0.5009418603962672  0.2506439939056762  0.5456773192149740   F   F   F
  0.2175425423202526  0.2125169762336583  0.5479620080509164   F   F   F
  0.0514202127121386  0.1190377007578174  0.6283157945880465   T   T   T
  0.3341503914662336  0.1541450808234269  0.6230354493884271   T   T   T
  0.3213822335794299  0.4200129111481070  0.6327601337151111   T   T   T
  0.0371330229871963  0.3825127659075791  0.6365560734563022   T   T   T
  0.3639950606795907  0.2773798048307000  0.7137702290521519   T   T   T
  0.1613692414581490  0.3330341755294727  0.7114355714525904   T   T   T
  0.1442358238061134  0.0932683335691260  0.7173857939124315   T   T   T
  0.3614661406532163  0.0567122433108096  0.7214238208435738   T   T   T
  0.1048163482439719  0.6061689492935187  0.3670806074368045   F   F   F
  0.3732623445892003  0.6389233360111604  0.3650114703045588   F   F   F
  0.3737743272097589  0.9225943611162037  0.3725879111148558   F   F   F
  0.0744046077524629  0.8629124597055267  0.3752116716380627   F   F   F
  0.4129341844172032  0.7772409229920285  0.4538525553315154   F   F   F
  0.1984387746528355  0.8145780215635341  0.4495369052433418   F   F   F
  0.1809177725838680  0.5772327211353740  0.4589466093279384   F   F   F
  0.3999867578991356  0.5425280634895131  0.4631158645196578   F   F   F
  0.2330362380461040  0.9462873395773670  0.5411192918665648   F   F   F
  0.0165350603909360  0.9845897707658224  0.5388003781022306   F   F   F
  0.5009418600540485  0.7506439939056762  0.5456773192149740   F   F   F
  0.2175425419780339  0.7125169762336583  0.5479620080509164   F   F   F
  0.0530147578268475  0.6192589889448065  0.6275881753167387   T   T   T
  0.3342249150751318  0.6546642094545306  0.6236453596562853   T   T   T
  0.3215914835815811  0.9193719738269863  0.6328001687725753   T   T   T
  0.0353083511776009  0.8817417627658469  0.6371045312508947   T   T   T
  0.3604427300163445  0.7742076956207771  0.7140498932360353   T   T   T
  0.1581802745406657  0.8309476289999471  0.7109075176955078   T   T   T
  0.1297012324314607  0.5891898231619506  0.7196462635852958   T   T   T
  0.3610424948058735  0.5580933819914978  0.7217405843583891   T   T   T
  0.6048163664154629  0.1061689485554993  0.3670806074368045   F   F   F
  0.8732623793993639  0.1389233751263106  0.3650114703045588   F   F   F
  0.8737743087301411  0.4225943611162037  0.3725879111148558   F   F   F
  0.5744046262320808  0.3629124597055267  0.3752116716380627   F   F   F
  0.9129342185429365  0.2772409621071787  0.4538525553315154   F   F   F
  0.6984387568576409  0.3145780215635341  0.4495369052433418   F   F   F
  0.6809177910634858  0.0772327211353740  0.4589466093279384   F   F   F
  0.8999867763787535  0.0425280634895131  0.4631158645196578   F   F   F
  0.7330362555331718  0.4462873388393405  0.5411192918665648   F   F   F
  0.5165350788705538  0.4845897707658224  0.5388003781022306   F   F   F
  0.0009418785336663  0.2506439939056762  0.5456773192149740   F   F   F
  0.7175425241828464  0.2125169762336583  0.5479620080509164   F   F   F
  0.5553719856753759  0.1200025442537052  0.6301997085557377   T   T   T
  0.8333954896063500  0.1533439293076210  0.6249883319777980   T   T   T
  0.8220170025210299  0.4194437587893188  0.6326944478118750   T   T   T
  0.5353976084645145  0.3829999994532310  0.6361562547727019   T   T   T
  0.8669083878172423  0.2768850347846089  0.7131324156420492   T   T   T
  0.6582560432535368  0.3378876462956595  0.7106272440279081   T   T   T
  0.6249103206310244  0.0827312590969836  0.7245580481517722   T   T   T
  0.8498798336747679  0.0515502525997274  0.7271483484913116   T   T   T
  0.6048163663813710  0.6061689492935187  0.3670806074368045   F   F   F
  0.8732623627266065  0.6389233360111604  0.3650114703045588   F   F   F
  0.8737743090723527  0.9225943611162037  0.3725879111148558   F   F   F
  0.5744046258898692  0.8629124597055267  0.3752116716380627   F   F   F
  0.9129341662797970  0.7772409229920285  0.4538525553315154   F   F   F
  0.6984387565154293  0.8145780215635341  0.4495369052433418   F   F   F
  0.6809177907212671  0.5772327211353740  0.4589466093279384   F   F   F
  0.8999867760365419  0.5425280634895131  0.4631158645196578   F   F   F
  0.7330362561835102  0.9462873395773670  0.5411192918665648   F   F   F
  0.5165350422535298  0.9845897707658224  0.5388003781022306   F   F   F
  0.0009418419166423  0.7506439939056762  0.5456773192149740   F   F   F
  0.7175425238406277  0.7125169762336583  0.5479620080509164   F   F   F
  0.5528333882163470  0.6195306104139033  0.6274480307661036   T   T   T
  0.8339138016405685  0.6542790413423809  0.6235627767121122   T   T   T
  0.8210097670030002  0.9202417429903721  0.6336289353891745   T   T   T
  0.5358791412427100  0.8826578479626942  0.6373955891851286   T   T   T
  0.8595064883424531  0.7729378617009857  0.7138532271126402   T   T   T
  0.6586857333867890  0.8307331782822376  0.7108414559072631   T   T   T
  0.6289342429720649  0.5895886222612632  0.7193764365440690   T   T   T
  0.8625078804083269  0.5578719808021684  0.7217655442157929   T   T   T
  0.1288949438227718  0.0023484482531160  0.4055195577942712   F   F   F
  0.2171202666773340  0.3655754167956218  0.3861183836848383   F   F   F
  0.2422423258657034  0.1476133695295374  0.3459273718759022   F   F   F
  0.4156474651992070  0.2981851794507051  0.3852004440830470   F   F   F
  0.4483239664366039  0.0539867416112187  0.4013417443530614   F   F   F
  0.0299853079393912  0.2126836445618636  0.3518312443090039   F   F   F
  0.0187047650824397  0.4596688007873126  0.3441004418035476   F   F   F
  0.4407067360639800  0.1746064507354319  0.4921106331816247   F   F   F
  0.0377163536368030  0.0445207962015530  0.4784636998764498   F   F   F
  0.1535412084935999  0.1806685489506918  0.4213457166182479   F   F   F
  0.0591853102326070  0.3140539111662690  0.4348011568349932   F   F   F
  0.2394803091811184  0.4691793816761418  0.4727388595325124   F   F   F
  0.2650519433922724  0.2243375790944881  0.4843499474579644   F   F   F
  0.3566567922348511  0.3873940024069498  0.4403535575654089   F   F   F
  0.3328108427282856  0.1313181029643218  0.4278359404830923   F   F   F
  0.2581866711651202  0.3423726168552079  0.5795646223034439   F   F   F
  0.3560439348708542  0.2157748010357707  0.5635848618646406   F   F   F
  0.4760509698249393  0.3547283002155908  0.5072056726829643   F   F   F
  0.3780098865293127  0.4813491730878567  0.5232635452510195   F   F   F
  0.0572094665586604  0.1406956991309585  0.5591678785740655   F   F   F
  0.0828115205656985  0.3944539472283708  0.5727661560197674   F   F   F
  0.1768614834644140  0.0563424554666554  0.5276318489661804   F   F   F
  0.1512854977469189  0.3024251718091691  0.5140239261879529   F   F   F
  0.0819584178361634  0.0163809701265751  0.6655166993598848   T   T   T
  0.1753444005260218  0.3813607308274068  0.6519107415331806   T   T   T
  0.2925293981528531  0.0220586219517376  0.5946765110473072   T   T   T
  0.1959133289086726  0.1528256099326713  0.6084899128227026   T   T   T
  0.3781523829898849  0.3099377234235371  0.6463216980446531   T   T   T
  0.4005557993117124  0.0658855535460292  0.6589167068792625   T   T   T
  0.4951912570776615  0.2276062260290907  0.6146629815547697   T   T   T
  0.4685745414643395  0.4723835520411062  0.6020137915527579   T   T   T
  0.3929654590271397  0.1844650763478029  0.7499373353311619   T   T   T
  0.4824672521493262  0.0391033401772636  0.7394851046084615   T   T   T
  0.1059908991627413  0.1933395879198273  0.6819593362461112   T   T   T
  0.0187500702991100  0.3311647644215718  0.7002692106552812   T   T   T
  0.2041347351875125  0.4832376356085163  0.7347293376879885   T   T   T
  0.2203475310927915  0.2383482686832397  0.7423675673203013   T   T   T
  0.3191641745434053  0.3991378671318115  0.7013207576398720   T   T   T
  0.2860358438732573  0.1448560607354891  0.6848517961377373   T   T   T
  0.1288949434805602  0.5023484482531160  0.4055195577942712   F   F   F
  0.2171202300603028  0.8655754167956218  0.3861183836848383   F   F   F
  0.2422423265160418  0.6476133702675639  0.3459273718759022   F   F   F
  0.4156474648569883  0.7981851794507051  0.3852004440830470   F   F   F
  0.4483239667788155  0.5539867416112187  0.4013417443530614   F   F   F
  0.0299853079052994  0.7126836452998830  0.3518312443090039   F   F   F
  0.0187047647402281  0.9596688007873126  0.3441004418035476   F   F   F
  0.4407066994469560  0.6746064507354319  0.4921106331816247   F   F   F
  0.0377163539790217  0.5445207962015530  0.4784636998764498   F   F   F
  0.1535412081513883  0.6806685489506918  0.4213457166182479   F   F   F
  0.0591853098903883  0.8140539111662690  0.4348011568349932   F   F   F
  0.2394803088388997  0.9691793816761418  0.4727388595325124   F   F   F
  0.2650519437344911  0.7243375790944881  0.4843499474579644   F   F   F
  0.3566567918926324  0.8873940024069498  0.4403535575654089   F   F   F
  0.3328108423860741  0.6313181029643218  0.4278359404830923   F   F   F
  0.2581866708229015  0.8423726168552079  0.5795646223034439   F   F   F
  0.3560439345286426  0.7157748010357707  0.5635848618646406   F   F   F
  0.4760509541447320  0.8547282618384600  0.5072056726829643   F   F   F
  0.3780098499122886  0.9813491730878567  0.5232635452510195   F   F   F
  0.0572094306260666  0.6406956991309585  0.5591678785740655   F   F   F
  0.0828115209079101  0.8944539472283708  0.5727661560197674   F   F   F
  0.1768614841147524  0.5563424562046748  0.5276318489661804   F   F   F
  0.1512854611298948  0.8024251718091691  0.5140239261879529   F   F   F
  0.0813450252227328  0.5156715099343743  0.6650643372236049   T   T   T
  0.1741662615405183  0.8813659751242124  0.6515612013213226   T   T   T
  0.2923640338987223  0.5220025389529483  0.5947528816899229   T   T   T
  0.1962568409214448  0.6526374635461282  0.6082863716465203   T   T   T
  0.3769302893799372  0.8091308959166109  0.6460120769781645   T   T   T
  0.4010316038950986  0.5653384522281016  0.6587788553060264   T   T   T
  0.4938031073137863  0.7267273155029011  0.6137160329918451   T   T   T
  0.4699852349583901  0.9741193390738683  0.6027101412681026   T   T   T
  0.3891284639270202  0.6826505604144187  0.7515927477281077   T   T   T
  0.4910942031208545  0.5476570775351618  0.7405891442473737   T   T   T
  0.1039308089693241  0.6930630172795058  0.6813546283390400   T   T   T
  0.0169628173010088  0.8314527242313624  0.7004029953493560   T   T   T
  0.2044445374816309  0.9853664899150382  0.7344245694311026   T   T   T
  0.2141931584182331  0.7354057748064234  0.7425415899877390   T   T   T
  0.3157073531653715  0.8962613074506609  0.7008058915882490   T   T   T
  0.2855945175344243  0.6425978517173345  0.6854226971751045   T   T   T
  0.6288949256853655  0.0023484482531160  0.4055195577942712   F   F   F
  0.7171202485399277  0.3655754167956218  0.3861183836848383   F   F   F
  0.7422423440031096  0.1476133695295374  0.3459273718759022   F   F   F
  0.9156474470618008  0.2981851794507051  0.3852004440830470   F   F   F
  0.9483239482991976  0.0539867416112187  0.4013417443530614   F   F   F
  0.5299853260767975  0.2126836445618636  0.3518312443090039   F   F   F
  0.5187047825354156  0.4596688007873126  0.3441004418035476   F   F   F
  0.9407067179265738  0.1746064507354319  0.4921106331816247   F   F   F
  0.5377163717742093  0.0445207962015530  0.4784636998764498   F   F   F
  0.6535411903561936  0.1806685489506918  0.4213457166182479   F   F   F
  0.5591852920952007  0.3140539111662690  0.4348011568349932   F   F   F
  0.7394803273185175  0.4691793816761418  0.4727388595325124   F   F   F
  0.7650519615296787  0.2243375790944881  0.4843499474579644   F   F   F
  0.8566568103722574  0.3873940024069498  0.4403535575654089   F   F   F
  0.8328108608656919  0.1313181029643218  0.4278359404830923   F   F   F
  0.7581866530277139  0.3423726168552079  0.5795646223034439   F   F   F
  0.8560439167334479  0.2157748010357707  0.5635848618646406   F   F   F
  0.9760509516875331  0.3547283002155908  0.5072056726829643   F   F   F
  0.8780098683919064  0.4813491730878567  0.5232635452510195   F   F   F
  0.5572094484212542  0.1406956991309585  0.5591678785740655   F   F   F
  0.5828115387031048  0.3944539472283708  0.5727661560197674   F   F   F
  0.6768614653270077  0.0563424554666554  0.5276318489661804   F   F   F
  0.6512854796095198  0.3024251718091691  0.5140239261879529   F   F   F
  0.5769301517013695  0.0139129964542776  0.6669540345121456   T   T   T
  0.6744531142270587  0.3825520437621627  0.6512928211345836   T   T   T
  0.7927835940493113  0.0225374476415547  0.5951352138593596   T   T   T
  0.6963872945235340  0.1530923469285266  0.6090594506608626   T   T   T
  0.8800297574308725  0.3100732446903731  0.6459779244067544   T   T   T
  0.8997590667262986  0.0646809489235274  0.6608851231983376   T   T   T
  0.9943258621649707  0.2269610298342660  0.6143388693276777   T   T   T
  0.9692245988486891  0.4726640481580169  0.6021949233201673   T   T   T
  0.8912942932444485  0.1853445460117192  0.7513578486763859   T   T   T
  0.0058520376153722  0.0505447126345243  0.7441326702415506   T   T   T
  0.6081505064524262  0.1944232485277380  0.6852615044379999   T   T   T
  0.5185447172505692  0.3356333336923967  0.7004797041275678   T   T   T
  0.7050522122864159  0.4845662395873528  0.7349165539826998   T   T   T
  0.7191369874662280  0.2475970176531349  0.7478590541457039   T   T   T
  0.8173225713952984  0.3962098605772989  0.7005683726739030   T   T   T
  0.7828020457435542  0.1464518147500561  0.6867119909811578   T   T   T
  0.6288949253431539  0.5023484482531160  0.4055195577942712   F   F   F
  0.7171202481977090  0.8655754167956218  0.3861183836848383   F   F   F
  0.7422423439690178  0.6476133702675639  0.3459273718759022   F   F   F
  0.9156474467195821  0.7981851794507051  0.3852004440830470   F   F   F
  0.9483239486414092  0.5539867416112187  0.4013417443530614   F   F   F
  0.5299853260427057  0.7126836452998830  0.3518312443090039   F   F   F
  0.5187047828776272  0.9596688007873126  0.3441004418035476   F   F   F
  0.9407067175843622  0.6746064507354319  0.4921106331816247   F   F   F
  0.5377163358416155  0.5445207962015530  0.4784636998764498   F   F   F
  0.6535411900139820  0.6806685489506918  0.4213457166182479   F   F   F
  0.5591852917529891  0.8140539111662690  0.4348011568349932   F   F   F
  0.7394802907014935  0.9691793816761418  0.4727388595325124   F   F   F
  0.7650519255970849  0.7243375790944881  0.4843499474579644   F   F   F
  0.8566568100300387  0.8873940024069498  0.4403535575654089   F   F   F
  0.8328108605234732  0.6313181029643218  0.4278359404830923   F   F   F
  0.7581866526854952  0.8423726168552079  0.5795646223034439   F   F   F
  0.8560439163912363  0.7157748010357707  0.5635848618646406   F   F   F
  0.9760509360073257  0.8547282618384600  0.5072056726829643   F   F   F
  0.8780098680496948  0.9813491730878567  0.5232635452510195   F   F   F
  0.5572094487634729  0.6406956991309585  0.5591678785740655   F   F   F
  0.5828115383608861  0.8944539472283708  0.5727661560197674   F   F   F
  0.6768614659773462  0.5563424562046748  0.5276318489661804   F   F   F
  0.6512854792673011  0.8024251718091691  0.5140239261879529   F   F   F
  0.5806607736921796  0.5157628190379854  0.6647654498142634   T   T   T
  0.6731295888618768  0.8786197778096032  0.6509464474300931   T   T   T
  0.7932964534623954  0.5219784297947496  0.5946940766105167   T   T   T
  0.6961948518455163  0.6520199334635777  0.6081621250892437   T   T   T
  0.8776560283619029  0.8085945820785088  0.6461128395118491   T   T   T
  0.9017531813459868  0.5649611962043630  0.6588836018936221   T   T   T
  0.9946813334617370  0.7273107163924111  0.6139624355706118   T   T   T
  0.9692565624988649  0.9729156913350274  0.6027396599332131   T   T   T
  0.8927168399634059  0.6830095580473963  0.7507460830963367   T   T   T
  0.9916615908131311  0.5457185729230783  0.7404581569535990   T   T   T
  0.6035458954020413  0.6919392214747849  0.6810684451059749   T   T   T
  0.5146882366647298  0.8264793641675517  0.6997565266690959   T   T   T
  0.6949896795444972  0.9782034576023378  0.7282894126315369   T   T   T
  0.7148528592734360  0.7336636964846647  0.7421303890048777   T   T   T
  0.8174422688931033  0.8955594366489013  0.7006274076794661   T   T   T
  0.7854300199421733  0.6415290710696252  0.6851718244778714   T   T   T
  0.8438790223745301  0.0134899652354292  0.3353585148273055   F   F   F
  0.8438790223750132  0.5134900652373702  0.3353585148273055   F   F   F
  0.3438790223750132  0.5134900652373702  0.3353585148273055   F   F   F
  0.3438790223745301  0.0134899652354292  0.3353585148273055   F   F   F
  0.6465615123573594  0.0732132153912552  0.7866897254505301   T   T   T
  0.7149379877229135  0.2184869501989562  0.8265504001778328   T   T   T
  0.8415845578799986  0.9814352507767820  0.7799662832797056   T   T   T
  0.6839159491353769  0.1493417283890650  0.8147610616637205   T   T   T
  0.7240872753395003  0.2479167201804776  0.7788830456125756   T   T   T
  0.9807232177702979  0.0237590757123248  0.7714903316876303   T   T   T
 
  0.00000000E+00  0.00000000E+00  0.00000000E+00
  0.00000000E+00  0.00000000E+00  0.00000000E+00
  0.00000000E+00  0.00000000E+00  0.00000000E+00
  0.00000000E+00  0.00000000E+00  0.00000000E+00
  0.00000000E+00  0.00000000E+00  0.00000000E+00
  0.00000000E+00  0.00000000E+00  0.00000000E+00
  0.00000000E+00  0.00000000E+00  0.00000000E+00
  0.00000000E+00  0.00000000E+00  0.00000000E+00
  0.00000000E+00  0.00000000E+00  0.00000000E+00
  0.00000000E+00  0.00000000E+00  0.00000000E+00
  0.00000000E+00  0.00000000E+00  0.00000000E+00
  0.00000000E+00  0.00000000E+00  0.00000000E+00
  0.00000000E+00  0.00000000E+00  0.00000000E+00
  0.00000000E+00  0.00000000E+00  0.00000000E+00
  0.00000000E+00  0.00000000E+00  0.00000000E+00
  0.00000000E+00  0.00000000E+00  0.00000000E+00
  0.00000000E+00  0.00000000E+00  0.00000000E+00
  0.00000000E+00  0.00000000E+00  0.00000000E+00
  0.00000000E+00  0.00000000E+00  0.00000000E+00
  0.00000000E+00  0.00000000E+00  0.00000000E+00
  0.00000000E+00  0.00000000E+00  0.00000000E+00
  0.00000000E+00  0.00000000E+00  0.00000000E+00
  0.00000000E+00  0.00000000E+00  0.00000000E+00
  0.00000000E+00  0.00000000E+00  0.00000000E+00
  0.00000000E+00  0.00000000E+00  0.00000000E+00
  0.00000000E+00  0.00000000E+00  0.00000000E+00
  0.00000000E+00  0.00000000E+00  0.00000000E+00
  0.00000000E+00  0.00000000E+00  0.00000000E+00
  0.00000000E+00  0.00000000E+00  0.00000000E+00
  0.00000000E+00  0.00000000E+00  0.00000000E+00
  0.00000000E+00  0.00000000E+00  0.00000000E+00
  0.00000000E+00  0.00000000E+00  0.00000000E+00
  0.00000000E+00  0.00000000E+00  0.00000000E+00
  0.00000000E+00  0.00000000E+00  0.00000000E+00
  0.00000000E+00  0.00000000E+00  0.00000000E+00
  0.00000000E+00  0.00000000E+00  0.00000000E+00
  0.00000000E+00  0.00000000E+00  0.00000000E+00
  0.00000000E+00  0.00000000E+00  0.00000000E+00
  0.00000000E+00  0.00000000E+00  0.00000000E+00
  0.00000000E+00  0.00000000E+00  0.00000000E+00
  0.00000000E+00  0.00000000E+00  0.00000000E+00
  0.00000000E+00  0.00000000E+00  0.00000000E+00
  0.00000000E+00  0.00000000E+00  0.00000000E+00
  0.00000000E+00  0.00000000E+00  0.00000000E+00
  0.00000000E+00  0.00000000E+00  0.00000000E+00
  0.00000000E+00  0.00000000E+00  0.00000000E+00
  0.00000000E+00  0.00000000E+00  0.00000000E+00
  0.00000000E+00  0.00000000E+00  0.00000000E+00
  0.00000000E+00  0.00000000E+00  0.00000000E+00
  0.00000000E+00  0.00000000E+00  0.00000000E+00
  0.00000000E+00  0.00000000E+00  0.00000000E+00
  0.00000000E+00  0.00000000E+00  0.00000000E+00
  0.00000000E+00  0.00000000E+00  0.00000000E+00
  0.00000000E+00  0.00000000E+00  0.00000000E+00
  0.00000000E+00  0.00000000E+00  0.00000000E+00
  0.00000000E+00  0.00000000E+00  0.00000000E+00
  0.00000000E+00  0.00000000E+00  0.00000000E+00
  0.00000000E+00  0.00000000E+00  0.00000000E+00
  0.00000000E+00  0.00000000E+00  0.00000000E+00
  0.00000000E+00  0.00000000E+00  0.00000000E+00
  0.00000000E+00  0.00000000E+00  0.00000000E+00
  0.00000000E+00  0.00000000E+00  0.00000000E+00
  0.00000000E+00  0.00000000E+00  0.00000000E+00
  0.00000000E+00  0.00000000E+00  0.00000000E+00
  0.00000000E+00  0.00000000E+00  0.00000000E+00
  0.00000000E+00  0.00000000E+00  0.00000000E+00
  0.00000000E+00  0.00000000E+00  0.00000000E+00
  0.00000000E+00  0.00000000E+00  0.00000000E+00
  0.00000000E+00  0.00000000E+00  0.00000000E+00
  0.00000000E+00  0.00000000E+00  0.00000000E+00
  0.00000000E+00  0.00000000E+00  0.00000000E+00
  0.00000000E+00  0.00000000E+00  0.00000000E+00
  0.00000000E+00  0.00000000E+00  0.00000000E+00
  0.00000000E+00  0.00000000E+00  0.00000000E+00
  0.00000000E+00  0.00000000E+00  0.00000000E+00
  0.00000000E+00  0.00000000E+00  0.00000000E+00
  0.00000000E+00  0.00000000E+00  0.00000000E+00
  0.00000000E+00  0.00000000E+00  0.00000000E+00
  0.00000000E+00  0.00000000E+00  0.00000000E+00
  0.00000000E+00  0.00000000E+00  0.00000000E+00
  0.00000000E+00  0.00000000E+00  0.00000000E+00
  0.00000000E+00  0.00000000E+00  0.00000000E+00
  0.00000000E+00  0.00000000E+00  0.00000000E+00
  0.00000000E+00  0.00000000E+00  0.00000000E+00
  0.00000000E+00  0.00000000E+00  0.00000000E+00
  0.00000000E+00  0.00000000E+00  0.00000000E+00
  0.00000000E+00  0.00000000E+00  0.00000000E+00
  0.00000000E+00  0.00000000E+00  0.00000000E+00
  0.00000000E+00  0.00000000E+00  0.00000000E+00
  0.00000000E+00  0.00000000E+00  0.00000000E+00
  0.00000000E+00  0.00000000E+00  0.00000000E+00
  0.00000000E+00  0.00000000E+00  0.00000000E+00
  0.00000000E+00  0.00000000E+00  0.00000000E+00
  0.00000000E+00  0.00000000E+00  0.00000000E+00
  0.00000000E+00  0.00000000E+00  0.00000000E+00
  0.00000000E+00  0.00000000E+00  0.00000000E+00
  0.00000000E+00  0.00000000E+00  0.00000000E+00
  0.00000000E+00  0.00000000E+00  0.00000000E+00
  0.00000000E+00  0.00000000E+00  0.00000000E+00
  0.00000000E+00  0.00000000E+00  0.00000000E+00
  0.00000000E+00  0.00000000E+00  0.00000000E+00
  0.00000000E+00  0.00000000E+00  0.00000000E+00
  0.00000000E+00  0.00000000E+00  0.00000000E+00
  0.00000000E+00  0.00000000E+00  0.00000000E+00
  0.00000000E+00  0.00000000E+00  0.00000000E+00
  0.00000000E+00  0.00000000E+00  0.00000000E+00
  0.00000000E+00  0.00000000E+00  0.00000000E+00
  0.00000000E+00  0.00000000E+00  0.00000000E+00
  0.00000000E+00  0.00000000E+00  0.00000000E+00
  0.00000000E+00  0.00000000E+00  0.00000000E+00
  0.00000000E+00  0.00000000E+00  0.00000000E+00
  0.00000000E+00  0.00000000E+00  0.00000000E+00
  0.00000000E+00  0.00000000E+00  0.00000000E+00
  0.00000000E+00  0.00000000E+00  0.00000000E+00
  0.00000000E+00  0.00000000E+00  0.00000000E+00
  0.00000000E+00  0.00000000E+00  0.00000000E+00
  0.00000000E+00  0.00000000E+00  0.00000000E+00
  0.00000000E+00  0.00000000E+00  0.00000000E+00
  0.00000000E+00  0.00000000E+00  0.00000000E+00
  0.00000000E+00  0.00000000E+00  0.00000000E+00
  0.00000000E+00  0.00000000E+00  0.00000000E+00
  0.00000000E+00  0.00000000E+00  0.00000000E+00
  0.00000000E+00  0.00000000E+00  0.00000000E+00
  0.00000000E+00  0.00000000E+00  0.00000000E+00
  0.00000000E+00  0.00000000E+00  0.00000000E+00
  0.00000000E+00  0.00000000E+00  0.00000000E+00
  0.00000000E+00  0.00000000E+00  0.00000000E+00
  0.00000000E+00  0.00000000E+00  0.00000000E+00
  0.00000000E+00  0.00000000E+00  0.00000000E+00
  0.00000000E+00  0.00000000E+00  0.00000000E+00
  0.00000000E+00  0.00000000E+00  0.00000000E+00
  0.00000000E+00  0.00000000E+00  0.00000000E+00
  0.00000000E+00  0.00000000E+00  0.00000000E+00
  0.00000000E+00  0.00000000E+00  0.00000000E+00
  0.00000000E+00  0.00000000E+00  0.00000000E+00
  0.00000000E+00  0.00000000E+00  0.00000000E+00
  0.00000000E+00  0.00000000E+00  0.00000000E+00
  0.00000000E+00  0.00000000E+00  0.00000000E+00
  0.00000000E+00  0.00000000E+00  0.00000000E+00
  0.00000000E+00  0.00000000E+00  0.00000000E+00
  0.00000000E+00  0.00000000E+00  0.00000000E+00
  0.00000000E+00  0.00000000E+00  0.00000000E+00
  0.00000000E+00  0.00000000E+00  0.00000000E+00
  0.00000000E+00  0.00000000E+00  0.00000000E+00
  0.00000000E+00  0.00000000E+00  0.00000000E+00
  0.00000000E+00  0.00000000E+00  0.00000000E+00
  0.00000000E+00  0.00000000E+00  0.00000000E+00
  0.00000000E+00  0.00000000E+00  0.00000000E+00
  0.00000000E+00  0.00000000E+00  0.00000000E+00
  0.00000000E+00  0.00000000E+00  0.00000000E+00
  0.00000000E+00  0.00000000E+00  0.00000000E+00
  0.00000000E+00  0.00000000E+00  0.00000000E+00
  0.00000000E+00  0.00000000E+00  0.00000000E+00
  0.00000000E+00  0.00000000E+00  0.00000000E+00
  0.00000000E+00  0.00000000E+00  0.00000000E+00
  0.00000000E+00  0.00000000E+00  0.00000000E+00
  0.00000000E+00  0.00000000E+00  0.00000000E+00
  0.00000000E+00  0.00000000E+00  0.00000000E+00
  0.00000000E+00  0.00000000E+00  0.00000000E+00
  0.00000000E+00  0.00000000E+00  0.00000000E+00
  0.00000000E+00  0.00000000E+00  0.00000000E+00
  0.00000000E+00  0.00000000E+00  0.00000000E+00
  0.00000000E+00  0.00000000E+00  0.00000000E+00
  0.00000000E+00  0.00000000E+00  0.00000000E+00
  0.00000000E+00  0.00000000E+00  0.00000000E+00
  0.00000000E+00  0.00000000E+00  0.00000000E+00
  0.00000000E+00  0.00000000E+00  0.00000000E+00
  0.00000000E+00  0.00000000E+00  0.00000000E+00
  0.00000000E+00  0.00000000E+00  0.00000000E+00
  0.00000000E+00  0.00000000E+00  0.00000000E+00
  0.00000000E+00  0.00000000E+00  0.00000000E+00
  0.00000000E+00  0.00000000E+00  0.00000000E+00
  0.00000000E+00  0.00000000E+00  0.00000000E+00
  0.00000000E+00  0.00000000E+00  0.00000000E+00
  0.00000000E+00  0.00000000E+00  0.00000000E+00
  0.00000000E+00  0.00000000E+00  0.00000000E+00
  0.00000000E+00  0.00000000E+00  0.00000000E+00
  0.00000000E+00  0.00000000E+00  0.00000000E+00
  0.00000000E+00  0.00000000E+00  0.00000000E+00
  0.00000000E+00  0.00000000E+00  0.00000000E+00
  0.00000000E+00  0.00000000E+00  0.00000000E+00
  0.00000000E+00  0.00000000E+00  0.00000000E+00
  0.00000000E+00  0.00000000E+00  0.00000000E+00
  0.00000000E+00  0.00000000E+00  0.00000000E+00
  0.00000000E+00  0.00000000E+00  0.00000000E+00
  0.00000000E+00  0.00000000E+00  0.00000000E+00
  0.00000000E+00  0.00000000E+00  0.00000000E+00
  0.00000000E+00  0.00000000E+00  0.00000000E+00
  0.00000000E+00  0.00000000E+00  0.00000000E+00
  0.00000000E+00  0.00000000E+00  0.00000000E+00
  0.00000000E+00  0.00000000E+00  0.00000000E+00
  0.00000000E+00  0.00000000E+00  0.00000000E+00
  0.00000000E+00  0.00000000E+00  0.00000000E+00
  0.00000000E+00  0.00000000E+00  0.00000000E+00
  0.00000000E+00  0.00000000E+00  0.00000000E+00
  0.00000000E+00  0.00000000E+00  0.00000000E+00
  0.00000000E+00  0.00000000E+00  0.00000000E+00
  0.00000000E+00  0.00000000E+00  0.00000000E+00
  0.00000000E+00  0.00000000E+00  0.00000000E+00
  0.00000000E+00  0.00000000E+00  0.00000000E+00
  0.00000000E+00  0.00000000E+00  0.00000000E+00
  0.00000000E+00  0.00000000E+00  0.00000000E+00
  0.00000000E+00  0.00000000E+00  0.00000000E+00
  0.00000000E+00  0.00000000E+00  0.00000000E+00
  0.00000000E+00  0.00000000E+00  0.00000000E+00
  0.00000000E+00  0.00000000E+00  0.00000000E+00
  0.00000000E+00  0.00000000E+00  0.00000000E+00
  0.00000000E+00  0.00000000E+00  0.00000000E+00
  0.00000000E+00  0.00000000E+00  0.00000000E+00
  0.00000000E+00  0.00000000E+00  0.00000000E+00
  0.00000000E+00  0.00000000E+00  0.00000000E+00
  0.00000000E+00  0.00000000E+00  0.00000000E+00
  0.00000000E+00  0.00000000E+00  0.00000000E+00
  0.00000000E+00  0.00000000E+00  0.00000000E+00
  0.00000000E+00  0.00000000E+00  0.00000000E+00
  0.00000000E+00  0.00000000E+00  0.00000000E+00
  0.00000000E+00  0.00000000E+00  0.00000000E+00
  0.00000000E+00  0.00000000E+00  0.00000000E+00
  0.00000000E+00  0.00000000E+00  0.00000000E+00
  0.00000000E+00  0.00000000E+00  0.00000000E+00
  0.00000000E+00  0.00000000E+00  0.00000000E+00
  0.00000000E+00  0.00000000E+00  0.00000000E+00
  0.00000000E+00  0.00000000E+00  0.00000000E+00
  0.00000000E+00  0.00000000E+00  0.00000000E+00
  0.00000000E+00  0.00000000E+00  0.00000000E+00
  0.00000000E+00  0.00000000E+00  0.00000000E+00
  0.00000000E+00  0.00000000E+00  0.00000000E+00
  0.00000000E+00  0.00000000E+00  0.00000000E+00
  0.00000000E+00  0.00000000E+00  0.00000000E+00
  0.00000000E+00  0.00000000E+00  0.00000000E+00
  0.00000000E+00  0.00000000E+00  0.00000000E+00
  0.00000000E+00  0.00000000E+00  0.00000000E+00
  0.00000000E+00  0.00000000E+00  0.00000000E+00
  0.00000000E+00  0.00000000E+00  0.00000000E+00
  0.00000000E+00  0.00000000E+00  0.00000000E+00
  0.00000000E+00  0.00000000E+00  0.00000000E+00
  0.00000000E+00  0.00000000E+00  0.00000000E+00
  0.00000000E+00  0.00000000E+00  0.00000000E+00