Hf  O  F  H                             
   1.00000000000000     
    14.6106902099999996    0.0000000000000000    0.0000000000000000
    -6.0999520900000004   13.5497369200000009    0.0000000000000000
     0.0000000000000000    0.0000000000000000   32.4676209000000000
   Hf   O    F    H 
    80   160    32    32
Selective dynamics
Direct
  0.1048163482780637  0.1061689485554993  0.3670806074368045   F   F   F
  0.3732623612619577  0.1389233751263106  0.3650114703045588   F   F   F
  0.3737743268675473  0.4225943611162037  0.3725879111148558   F   F   F
  0.0744046443694870  0.3629124597055267  0.3752116716380627   F   F   F
  0.4129342004055374  0.2772409621071787  0.4538525553315154   F   F   F
  0.1984387749950471  0.3145780215635341  0.4495369052433418   F   F   F
  0.1809177729260796  0.0772327211353740  0.4589466093279384   F   F   F
  0.3999867945161597  0.0425280634895131  0.4631158645196578   F   F   F
  0.2330362736705780  0.4462873388393405  0.5411192918665648   F   F   F
  0.0165350607331476  0.4845897707658224  0.5388003781022306   F   F   F
  0.5009418603962672  0.2506439939056762  0.5456773192149740   F   F   F
  0.2175425423202526  0.2125169762336583  0.5479620080509164   F   F   F
  0.0534363143523806  0.1191031584496720  0.6278282229765610   T   T   T
  0.3354126761959945  0.1572563421181539  0.6245416354897022   T   T   T
  0.3202907052179849  0.4201765140347217  0.6311710548031195   T   T   T
  0.0357878521263912  0.3826539318414816  0.6369831498629511   T   T   T
  0.3657972756665984  0.2922692522029612  0.7154751362653847   T   T   T
  0.1566858172443554  0.3328615555271611  0.7120907456052135   T   T   T
  0.1308358095707599  0.0932923289471231  0.7201137385174832   T   T   T
  0.3601178032683992  0.0522468631444556  0.7175965435229056   T   T   T
  0.1048163482439719  0.6061689492935187  0.3670806074368045   F   F   F
  0.3732623445892003  0.6389233360111604  0.3650114703045588   F   F   F
  0.3737743272097589  0.9225943611162037  0.3725879111148558   F   F   F
  0.0744046077524629  0.8629124597055267  0.3752116716380627   F   F   F
  0.4129341844172032  0.7772409229920285  0.4538525553315154   F   F   F
  0.1984387746528355  0.8145780215635341  0.4495369052433418   F   F   F
  0.1809177725838680  0.5772327211353740  0.4589466093279384   F   F   F
  0.3999867578991356  0.5425280634895131  0.4631158645196578   F   F   F
  0.2330362380461040  0.9462873395773670  0.5411192918665648   F   F   F
  0.0165350603909360  0.9845897707658224  0.5388003781022306   F   F   F
  0.5009418600540485  0.7506439939056762  0.5456773192149740   F   F   F
  0.2175425419780339  0.7125169762336583  0.5479620080509164   F   F   F
  0.0534257199033003  0.6190863115136629  0.6278085451694511   T   T   T
  0.3354198458533773  0.6572518968278311  0.6245338724762719   T   T   T
  0.3202809427996134  0.9201885988374727  0.6311706074326450   T   T   T
  0.0357913417639912  0.8826780845502495  0.6369911201801299   T   T   T
  0.3658094229441018  0.7922638866510692  0.7154664425346681   T   T   T
  0.1566794397071032  0.8328752961908716  0.7121006245314047   T   T   T
  0.1308796117720200  0.5932568329104618  0.7201086230584230   T   T   T
  0.3601431266280821  0.5522440151604845  0.7175904098897634   T   T   T
  0.6048163664154629  0.1061689485554993  0.3670806074368045   F   F   F
  0.8732623793993639  0.1389233751263106  0.3650114703045588   F   F   F
  0.8737743087301411  0.4225943611162037  0.3725879111148558   F   F   F
  0.5744046262320808  0.3629124597055267  0.3752116716380627   F   F   F
  0.9129342185429365  0.2772409621071787  0.4538525553315154   F   F   F
  0.6984387568576409  0.3145780215635341  0.4495369052433418   F   F   F
  0.6809177910634858  0.0772327211353740  0.4589466093279384   F   F   F
  0.8999867763787535  0.0425280634895131  0.4631158645196578   F   F   F
  0.7330362555331718  0.4462873388393405  0.5411192918665648   F   F   F
  0.5165350788705538  0.4845897707658224  0.5388003781022306   F   F   F
  0.0009418785336663  0.2506439939056762  0.5456773192149740   F   F   F
  0.7175425241828464  0.2125169762336583  0.5479620080509164   F   F   F
  0.5554367501745660  0.1203434774005499  0.6285398511221750   T   T   T
  0.8350611628088528  0.1557287165129857  0.6247371638201195   T   T   T
  0.8178790561607557  0.4179995361123039  0.6328216982687269   T   T   T
  0.5378249756314468  0.3828820088669310  0.6373734455138268   T   T   T
  0.8652450165062847  0.2852446616055547  0.7178114055065095   T   T   T
  0.6557579466348193  0.3297839648627305  0.7154087514364051   T   T   T
  0.6331558393562510  0.0917510698426462  0.7214524206425703   T   T   T
  0.8577742437361564  0.0518613884428502  0.7191876702381990   T   T   T
  0.6048163663813710  0.6061689492935187  0.3670806074368045   F   F   F
  0.8732623627266065  0.6389233360111604  0.3650114703045588   F   F   F
  0.8737743090723527  0.9225943611162037  0.3725879111148558   F   F   F
  0.5744046258898692  0.8629124597055267  0.3752116716380627   F   F   F
  0.9129341662797970  0.7772409229920285  0.4538525553315154   F   F   F
  0.6984387565154293  0.8145780215635341  0.4495369052433418   F   F   F
  0.6809177907212671  0.5772327211353740  0.4589466093279384   F   F   F
  0.8999867760365419  0.5425280634895131  0.4631158645196578   F   F   F
  0.7330362561835102  0.9462873395773670  0.5411192918665648   F   F   F
  0.5165350422535298  0.9845897707658224  0.5388003781022306   F   F   F
  0.0009418419166423  0.7506439939056762  0.5456773192149740   F   F   F
  0.7175425238406277  0.7125169762336583  0.5479620080509164   F   F   F
  0.5554467830326656  0.6203484008461736  0.6285381409566978   T   T   T
  0.8350496527344476  0.6557238203594060  0.6247306169972876   T   T   T
  0.8178932234950200  0.9180215040709714  0.6328276230565478   T   T   T
  0.5378343180106252  0.8828851718053966  0.6373722632409144   T   T   T
  0.8652286259600280  0.7852547518751025  0.7177961875261105   T   T   T
  0.6557754650850722  0.8297927547533497  0.7154021968007123   T   T   T
  0.6331752454624707  0.5917598250135295  0.7214487327937592   T   T   T
  0.8577443093374603  0.5518373011240156  0.7191871512386527   T   T   T
  0.1288949438227718  0.0023484482531160  0.4055195577942712   F   F   F
  0.2171202666773340  0.3655754167956218  0.3861183836848383   F   F   F
  0.2422423258657034  0.1476133695295374  0.3459273718759022   F   F   F
  0.4156474651992070  0.2981851794507051  0.3852004440830470   F   F   F
  0.4483239664366039  0.0539867416112187  0.4013417443530614   F   F   F
  0.0299853079393912  0.2126836445618636  0.3518312443090039   F   F   F
  0.0187047650824397  0.4596688007873126  0.3441004418035476   F   F   F
  0.4407067360639800  0.1746064507354319  0.4921106331816247   F   F   F
  0.0377163536368030  0.0445207962015530  0.4784636998764498   F   F   F
  0.1535412084935999  0.1806685489506918  0.4213457166182479   F   F   F
  0.0591853102326070  0.3140539111662690  0.4348011568349932   F   F   F
  0.2394803091811184  0.4691793816761418  0.4727388595325124   F   F   F
  0.2650519433922724  0.2243375790944881  0.4843499474579644   F   F   F
  0.3566567922348511  0.3873940024069498  0.4403535575654089   F   F   F
  0.3328108427282856  0.1313181029643218  0.4278359404830923   F   F   F
  0.2581866711651202  0.3423726168552079  0.5795646223034439   F   F   F
  0.3560439348708542  0.2157748010357707  0.5635848618646406   F   F   F
  0.4760509698249393  0.3547283002155908  0.5072056726829643   F   F   F
  0.3780098865293127  0.4813491730878567  0.5232635452510195   F   F   F
  0.0572094665586604  0.1406956991309585  0.5591678785740655   F   F   F
  0.0828115205656985  0.3944539472283708  0.5727661560197674   F   F   F
  0.1768614834644140  0.0563424554666554  0.5276318489661804   F   F   F
  0.1512854977469189  0.3024251718091691  0.5140239261879529   F   F   F
  0.0822418163903183  0.0163538115052370  0.6660030247756810   T   T   T
  0.1753781490198998  0.3847341363069285  0.6521180992118408   T   T   T
  0.2926916054951251  0.0242707178938353  0.5942840653300977   T   T   T
  0.1975364700422104  0.1533468775762555  0.6087493114427218   T   T   T
  0.3758251537180617  0.3121416259951466  0.6466746146619953   T   T   T
  0.4014619018383555  0.0650489060302667  0.6570650807594882   T   T   T
  0.4942727787186405  0.2277813364916608  0.6141600825117398   T   T   T
  0.4703614314112855  0.4733899508020491  0.6022527563596309   T   T   T
  0.3983169468649493  0.1815113715155020  0.7611500563218421   T   T   T
  0.4911449415257186  0.0581707032789028  0.7379810774262654   T   T   T
  0.1095236567733323  0.1961125508667226  0.6802583499999582   T   T   T
  0.0165558366330421  0.3258334133899498  0.7000659984497041   T   T   T
  0.2066822576506865  0.4856959868565877  0.7334927092533853   T   T   T
  0.2187050002556160  0.2395236592773623  0.7411002719824218   T   T   T
  0.3192555073837847  0.4034602196458190  0.7002384563437225   T   T   T
  0.3018217466781610  0.1507133178552995  0.6899600243580657   T   T   T
  0.1288949434805602  0.5023484482531160  0.4055195577942712   F   F   F
  0.2171202300603028  0.8655754167956218  0.3861183836848383   F   F   F
  0.2422423265160418  0.6476133702675639  0.3459273718759022   F   F   F
  0.4156474648569883  0.7981851794507051  0.3852004440830470   F   F   F
  0.4483239667788155  0.5539867416112187  0.4013417443530614   F   F   F
  0.0299853079052994  0.7126836452998830  0.3518312443090039   F   F   F
  0.0187047647402281  0.9596688007873126  0.3441004418035476   F   F   F
  0.4407066994469560  0.6746064507354319  0.4921106331816247   F   F   F
  0.0377163539790217  0.5445207962015530  0.4784636998764498   F   F   F
  0.1535412081513883  0.6806685489506918  0.4213457166182479   F   F   F
  0.0591853098903883  0.8140539111662690  0.4348011568349932   F   F   F
  0.2394803088388997  0.9691793816761418  0.4727388595325124   F   F   F
  0.2650519437344911  0.7243375790944881  0.4843499474579644   F   F   F
  0.3566567918926324  0.8873940024069498  0.4403535575654089   F   F   F
  0.3328108423860741  0.6313181029643218  0.4278359404830923   F   F   F
  0.2581866708229015  0.8423726168552079  0.5795646223034439   F   F   F
  0.3560439345286426  0.7157748010357707  0.5635848618646406   F   F   F
  0.4760509541447320  0.8547282618384600  0.5072056726829643   F   F   F
  0.3780098499122886  0.9813491730878567  0.5232635452510195   F   F   F
  0.0572094306260666  0.6406956991309585  0.5591678785740655   F   F   F
  0.0828115209079101  0.8944539472283708  0.5727661560197674   F   F   F
  0.1768614841147524  0.5563424562046748  0.5276318489661804   F   F   F
  0.1512854611298948  0.8024251718091691  0.5140239261879529   F   F   F
  0.0822472619894329  0.5163756281678967  0.6660094697160575   T   T   T
  0.1753729361399279  0.8847092325649596  0.6521227050240496   T   T   T
  0.2926957870413287  0.5242803939014442  0.5942843824718566   T   T   T
  0.1975235593410246  0.6533449909868825  0.6087526618145780   T   T   T
  0.3758168396367269  0.8121348821523885  0.6466734109947702   T   T   T
  0.4014721400820383  0.5650603313534869  0.6570631636608515   T   T   T
  0.4942706047323240  0.7277835059908607  0.6141594219328989   T   T   T
  0.4703582822725031  0.9733887434951005  0.6022537178304146   T   T   T
  0.3983333517589667  0.6815259766504828  0.7611367861569565   T   T   T
  0.4911551464993913  0.5581804782377597  0.7379728144538680   T   T   T
  0.1095385402047507  0.6961080379086287  0.6802668242750184   T   T   T
  0.0165603219493290  0.8257981948581273  0.7000550323454586   T   T   T
  0.2066788514786368  0.9856610218500063  0.7334952074353691   T   T   T
  0.2187046196844856  0.7394813706774384  0.7411090141718681   T   T   T
  0.3192384464881703  0.9034279402336645  0.7002402439736376   T   T   T
  0.3018049794409069  0.6507016537698950  0.6899518321432544   T   T   T
  0.6288949256853655  0.0023484482531160  0.4055195577942712   F   F   F
  0.7171202485399277  0.3655754167956218  0.3861183836848383   F   F   F
  0.7422423440031096  0.1476133695295374  0.3459273718759022   F   F   F
  0.9156474470618008  0.2981851794507051  0.3852004440830470   F   F   F
  0.9483239482991976  0.0539867416112187  0.4013417443530614   F   F   F
  0.5299853260767975  0.2126836445618636  0.3518312443090039   F   F   F
  0.5187047825354156  0.4596688007873126  0.3441004418035476   F   F   F
  0.9407067179265738  0.1746064507354319  0.4921106331816247   F   F   F
  0.5377163717742093  0.0445207962015530  0.4784636998764498   F   F   F
  0.6535411903561936  0.1806685489506918  0.4213457166182479   F   F   F
  0.5591852920952007  0.3140539111662690  0.4348011568349932   F   F   F
  0.7394803273185175  0.4691793816761418  0.4727388595325124   F   F   F
  0.7650519615296787  0.2243375790944881  0.4843499474579644   F   F   F
  0.8566568103722574  0.3873940024069498  0.4403535575654089   F   F   F
  0.8328108608656919  0.1313181029643218  0.4278359404830923   F   F   F
  0.7581866530277139  0.3423726168552079  0.5795646223034439   F   F   F
  0.8560439167334479  0.2157748010357707  0.5635848618646406   F   F   F
  0.9760509516875331  0.3547283002155908  0.5072056726829643   F   F   F
  0.8780098683919064  0.4813491730878567  0.5232635452510195   F   F   F
  0.5572094484212542  0.1406956991309585  0.5591678785740655   F   F   F
  0.5828115387031048  0.3944539472283708  0.5727661560197674   F   F   F
  0.6768614653270077  0.0563424554666554  0.5276318489661804   F   F   F
  0.6512854796095198  0.3024251718091691  0.5140239261879529   F   F   F
  0.5807411805659460  0.0158047194580774  0.6664547727167052   T   T   T
  0.6746059093451600  0.3836777875918774  0.6527968197871052   T   T   T
  0.7927344031549605  0.0231429032565351  0.5947593083437436   T   T   T
  0.6977718325782716  0.1532464377444946  0.6087428459316607   T   T   T
  0.8776138348987061  0.3118262193025331  0.6475458942697259   T   T   T
  0.9019512045899781  0.0635547127618136  0.6578690830429113   T   T   T
  0.9945365636860168  0.2277386308625308  0.6142722956508558   T   T   T
  0.9701637797627843  0.4725346376043434  0.6022857778589640   T   T   T
  0.8822295813809333  0.1735055093814223  0.7562439560714990   T   T   T
  0.9939451089463163  0.0594991982741383  0.7392113657825178   T   T   T
  0.6088649097188623  0.1952985130499280  0.6812785532954789   T   T   T
  0.5118219077756583  0.3228616525697133  0.6987432191788613   T   T   T
  0.7027355119197765  0.4833645753918467  0.7330004222739137   T   T   T
  0.7205296947888243  0.2358789928497222  0.7417090570589736   T   T   T
  0.8183380789754466  0.4003512578513723  0.7025097197780273   T   T   T
  0.7967447933520689  0.1464816679891141  0.6882123802956697   T   T   T
  0.6288949253431539  0.5023484482531160  0.4055195577942712   F   F   F
  0.7171202481977090  0.8655754167956218  0.3861183836848383   F   F   F
  0.7422423439690178  0.6476133702675639  0.3459273718759022   F   F   F
  0.9156474467195821  0.7981851794507051  0.3852004440830470   F   F   F
  0.9483239486414092  0.5539867416112187  0.4013417443530614   F   F   F
  0.5299853260427057  0.7126836452998830  0.3518312443090039   F   F   F
  0.5187047828776272  0.9596688007873126  0.3441004418035476   F   F   F
  0.9407067175843622  0.6746064507354319  0.4921106331816247   F   F   F
  0.5377163358416155  0.5445207962015530  0.4784636998764498   F   F   F
  0.6535411900139820  0.6806685489506918  0.4213457166182479   F   F   F
  0.5591852917529891  0.8140539111662690  0.4348011568349932   F   F   F
  0.7394802907014935  0.9691793816761418  0.4727388595325124   F   F   F
  0.7650519255970849  0.7243375790944881  0.4843499474579644   F   F   F
  0.8566568100300387  0.8873940024069498  0.4403535575654089   F   F   F
  0.8328108605234732  0.6313181029643218  0.4278359404830923   F   F   F
  0.7581866526854952  0.8423726168552079  0.5795646223034439   F   F   F
  0.8560439163912363  0.7157748010357707  0.5635848618646406   F   F   F
  0.9760509360073257  0.8547282618384600  0.5072056726829643   F   F   F
  0.8780098680496948  0.9813491730878567  0.5232635452510195   F   F   F
  0.5572094487634729  0.6406956991309585  0.5591678785740655   F   F   F
  0.5828115383608861  0.8944539472283708  0.5727661560197674   F   F   F
  0.6768614659773462  0.5563424562046748  0.5276318489661804   F   F   F
  0.6512854792673011  0.8024251718091691  0.5140239261879529   F   F   F
  0.5807578749296549  0.5158149608606758  0.6664509997137422   T   T   T
  0.6745967723759483  0.8836862865293097  0.6527925947167817   T   T   T
  0.7927390637949139  0.5231400753368163  0.5947612349501689   T   T   T
  0.6977820198104284  0.6532443161735838  0.6087408968761155   T   T   T
  0.8776076011644828  0.8118169152321929  0.6475441899602385   T   T   T
  0.9019585261508867  0.5635509923577466  0.6578732883396230   T   T   T
  0.9945352206201367  0.7277342232029986  0.6142735944101372   T   T   T
  0.9701648057307628  0.9725309161666165  0.6022852140679759   T   T   T
  0.8822490272191200  0.6734958453998503  0.7562389600540563   T   T   T
  0.9939475605006054  0.5594988063989121  0.7392117706787014   T   T   T
  0.6088768880890900  0.6953031351238405  0.6812730763314423   T   T   T
  0.5118038949773548  0.8228413221145519  0.6987387132678132   T   T   T
  0.7027251811309261  0.9833592574800070  0.7329982382215519   T   T   T
  0.7205392980219096  0.7358872675089716  0.7417036152978765   T   T   T
  0.8183356093420673  0.9003468256184952  0.7025033572661779   T   T   T
  0.7967377731030053  0.6464561543444487  0.6882097565880553   T   T   T
  0.8438790223745301  0.0134899652354292  0.3353585148273055   F   F   F
  0.8438790223750132  0.5134900652373702  0.3353585148273055   F   F   F
  0.3438790223750132  0.5134900652373702  0.3353585148273055   F   F   F
  0.3438790223745301  0.0134899652354292  0.3353585148273055   F   F   F
  0.6435560029968679  0.0809780672847326  0.7947754144956184   T   T   T
  0.7277646351960126  0.3750296114361459  0.8293164310014861   T   T   T
  0.6435451990169367  0.5809456638492858  0.7947665457146648   T   T   T
  0.7268130730222170  0.8746320624470815  0.8298155044308437   T   T   T
  0.1614751653775930  0.0904370909299490  0.7959275161890914   T   T   T
  0.1613204249657701  0.5903200278483307  0.7959654554182364   T   T   T
  0.1087271922092597  0.3158124367552188  0.7839326123159880   T   T   T
  0.1085333647655532  0.8157285195504799  0.7838696115956475   T   T   T
  0.3458828480038861  0.0874389923228372  0.8303960258149932   T   T   T
  0.3458496352518424  0.5872638987867717  0.8303328462355219   T   T   T
  0.4119156609851102  0.3651181135885608  0.7703204514925824   T   T   T
  0.4119590131837485  0.8651096448179415  0.7703063743586447   T   T   T
  0.9317144479306829  0.1744391030184443  0.8364272055745176   T   T   T
  0.9321842209951884  0.6743881105966136  0.8364020492418409   T   T   T
  0.9904557543523811  0.0531975984406157  0.8631799616292954   T   T   T
  0.9893229244374033  0.5523742777196404  0.8636335107938661   T   T   T
  0.9196392207848501  0.3623254173314036  0.7714561208557822   T   T   T
  0.9196573257515974  0.8623231095753675  0.7714341719279089   T   T   T
  0.1295409339339118  0.9454512286848472  0.8310767570214311   T   T   T
  0.1296725210559316  0.4454598886226323  0.8311612781376728   T   T   T
  0.1664397340481593  0.2324990522050064  0.8300642100415607   T   T   T
  0.1656205779045289  0.7320930522396750  0.8300943927675838   T   T   T
  0.3934253887752869  0.9496566689205251  0.8291009839699853   T   T   T
  0.3950802706501268  0.4505832309032383  0.8291387522565857   T   T   T
  0.5759137927081027  0.2840696179678927  0.7698046745102802   T   T   T
  0.5759411580411845  0.7840913855862911  0.7698071799263352   T   T   T
  0.6055132819148267  0.9393725478501636  0.8388705695112914   T   T   T
  0.6064638428383256  0.4395445990193110  0.8388733828912401   T   T   T
  0.6741119911374059  0.2062828932398786  0.8417542390572971   T   T   T
  0.6728628637848221  0.7057292607984585  0.8418793130866302   T   T   T
  0.9165941544526319  0.8846245574394158  0.8429000075450562   T   T   T
  0.9167932079353678  0.3839815234837181  0.8429899464945707   T   T   T
  0.6598847050635429  0.1459796209001349  0.8146638710976288   T   T   T
  0.6727403867581397  0.4006668965606475  0.8328396659694196   T   T   T
  0.6592965451850870  0.6457445485145505  0.8147137189809920   T   T   T
  0.6717964699241711  0.9003390638487219  0.8331095006083553   T   T   T
  0.1654436234569086  0.1693299847483577  0.8169380903356236   T   T   T
  0.1649219968204209  0.6690556563443942  0.8169456906056496   T   T   T
  0.1164616959057404  0.3912898231377720  0.8100071911365490   T   T   T
  0.1163548066638614  0.8913073315786137  0.8099205193802061   T   T   T
  0.3706407924164460  0.1570434974151276  0.7892911044236111   T   T   T
  0.3706564309804249  0.6570370538103679  0.7892752313864955   T   T   T
  0.4035037658178041  0.4154359571570430  0.8031785150037647   T   T   T
  0.4026495072009023  0.9149184937913399  0.8031568573280932   T   T   T
  0.9074626228079867  0.1821585905699767  0.7848268588641572   T   T   T
  0.9075865687270153  0.6821632724276214  0.7848014249448890   T   T   T
  0.9521757848883503  0.1238537537087661  0.8475848985053487   T   T   T
  0.9519666313157384  0.6234856830230848  0.8477106639398755   T   T   T
  0.9159254516064251  0.3734006289065763  0.8116208709987615   T   T   T
  0.9158171832618135  0.8737448459899563  0.8115459341261164   T   T   T
  0.1483488788653456  0.0238951653097907  0.8129447226920615   T   T   T
  0.1483449258584432  0.5238081995848378  0.8130050592649541   T   T   T
  0.1363508986911935  0.2726344714556018  0.8044081474473075   T   T   T
  0.1358185493912556  0.7723713782222716  0.8044134757595820   T   T   T
  0.3674877723373861  0.0317148483376348  0.8299713828004766   T   T   T
  0.3680814011129268  0.5319525360668477  0.8299582014281470   T   T   T
  0.4767395230351387  0.2230762710972926  0.7663063928712297   T   T   T
  0.4767637663168418  0.7231039050368882  0.7662977119116572   T   T   T
  0.6187854205748649  0.9961118293053799  0.8196959446769336   T   T   T
  0.6192956413365027  0.4961795907181368  0.8196872567968364   T   T   T
  0.6975581301833013  0.2814478779790897  0.8343938378822161   T   T   T
  0.6964522825241068  0.7810129635857836  0.8346704116136076   T   T   T
  0.9567288583205658  0.9812127489969777  0.8546989768830318   T   T   T
  0.9561189287146811  0.4805070211527062  0.8549805638144319   T   T   T
 
  0.00000000E+00  0.00000000E+00  0.00000000E+00
  0.00000000E+00  0.00000000E+00  0.00000000E+00
  0.00000000E+00  0.00000000E+00  0.00000000E+00
  0.00000000E+00  0.00000000E+00  0.00000000E+00
  0.00000000E+00  0.00000000E+00  0.00000000E+00
  0.00000000E+00  0.00000000E+00  0.00000000E+00
  0.00000000E+00  0.00000000E+00  0.00000000E+00
  0.00000000E+00  0.00000000E+00  0.00000000E+00
  0.00000000E+00  0.00000000E+00  0.00000000E+00
  0.00000000E+00  0.00000000E+00  0.00000000E+00
  0.00000000E+00  0.00000000E+00  0.00000000E+00
  0.00000000E+00  0.00000000E+00  0.00000000E+00
  0.00000000E+00  0.00000000E+00  0.00000000E+00
  0.00000000E+00  0.00000000E+00  0.00000000E+00
  0.00000000E+00  0.00000000E+00  0.00000000E+00
  0.00000000E+00  0.00000000E+00  0.00000000E+00
  0.00000000E+00  0.00000000E+00  0.00000000E+00
  0.00000000E+00  0.00000000E+00  0.00000000E+00
  0.00000000E+00  0.00000000E+00  0.00000000E+00
  0.00000000E+00  0.00000000E+00  0.00000000E+00
  0.00000000E+00  0.00000000E+00  0.00000000E+00
  0.00000000E+00  0.00000000E+00  0.00000000E+00
  0.00000000E+00  0.00000000E+00  0.00000000E+00
  0.00000000E+00  0.00000000E+00  0.00000000E+00
  0.00000000E+00  0.00000000E+00  0.00000000E+00
  0.00000000E+00  0.00000000E+00  0.00000000E+00
  0.00000000E+00  0.00000000E+00  0.00000000E+00
  0.00000000E+00  0.00000000E+00  0.00000000E+00
  0.00000000E+00  0.00000000E+00  0.00000000E+00
  0.00000000E+00  0.00000000E+00  0.00000000E+00
  0.00000000E+00  0.00000000E+00  0.00000000E+00
  0.00000000E+00  0.00000000E+00  0.00000000E+00
  0.00000000E+00  0.00000000E+00  0.00000000E+00
  0.00000000E+00  0.00000000E+00  0.00000000E+00
  0.00000000E+00  0.00000000E+00  0.00000000E+00
  0.00000000E+00  0.00000000E+00  0.00000000E+00
  0.00000000E+00  0.00000000E+00  0.00000000E+00
  0.00000000E+00  0.00000000E+00  0.00000000E+00
  0.00000000E+00  0.00000000E+00  0.00000000E+00
  0.00000000E+00  0.00000000E+00  0.00000000E+00
  0.00000000E+00  0.00000000E+00  0.00000000E+00
  0.00000000E+00  0.00000000E+00  0.00000000E+00
  0.00000000E+00  0.00000000E+00  0.00000000E+00
  0.00000000E+00  0.00000000E+00  0.00000000E+00
  0.00000000E+00  0.00000000E+00  0.00000000E+00
  0.00000000E+00  0.00000000E+00  0.00000000E+00
  0.00000000E+00  0.00000000E+00  0.00000000E+00
  0.00000000E+00  0.00000000E+00  0.00000000E+00
  0.00000000E+00  0.00000000E+00  0.00000000E+00
  0.00000000E+00  0.00000000E+00  0.00000000E+00
  0.00000000E+00  0.00000000E+00  0.00000000E+00
  0.00000000E+00  0.00000000E+00  0.00000000E+00
  0.00000000E+00  0.00000000E+00  0.00000000E+00
  0.00000000E+00  0.00000000E+00  0.00000000E+00
  0.00000000E+00  0.00000000E+00  0.00000000E+00
  0.00000000E+00  0.00000000E+00  0.00000000E+00
  0.00000000E+00  0.00000000E+00  0.00000000E+00
  0.00000000E+00  0.00000000E+00  0.00000000E+00
  0.00000000E+00  0.00000000E+00  0.00000000E+00
  0.00000000E+00  0.00000000E+00  0.00000000E+00
  0.00000000E+00  0.00000000E+00  0.00000000E+00
  0.00000000E+00  0.00000000E+00  0.00000000E+00
  0.00000000E+00  0.00000000E+00  0.00000000E+00
  0.00000000E+00  0.00000000E+00  0.00000000E+00
  0.00000000E+00  0.00000000E+00  0.00000000E+00
  0.00000000E+00  0.00000000E+00  0.00000000E+00
  0.00000000E+00  0.00000000E+00  0.00000000E+00
  0.00000000E+00  0.00000000E+00  0.00000000E+00
  0.00000000E+00  0.00000000E+00  0.00000000E+00
  0.00000000E+00  0.00000000E+00  0.00000000E+00
  0.00000000E+00  0.00000000E+00  0.00000000E+00
  0.00000000E+00  0.00000000E+00  0.00000000E+00
  0.00000000E+00  0.00000000E+00  0.00000000E+00
  0.00000000E+00  0.00000000E+00  0.00000000E+00
  0.00000000E+00  0.00000000E+00  0.00000000E+00
  0.00000000E+00  0.00000000E+00  0.00000000E+00
  0.00000000E+00  0.00000000E+00  0.00000000E+00
  0.00000000E+00  0.00000000E+00  0.00000000E+00
  0.00000000E+00  0.00000000E+00  0.00000000E+00
  0.00000000E+00  0.00000000E+00  0.00000000E+00
  0.00000000E+00  0.00000000E+00  0.00000000E+00
  0.00000000E+00  0.00000000E+00  0.00000000E+00
  0.00000000E+00  0.00000000E+00  0.00000000E+00
  0.00000000E+00  0.00000000E+00  0.00000000E+00
  0.00000000E+00  0.00000000E+00  0.00000000E+00
  0.00000000E+00  0.00000000E+00  0.00000000E+00
  0.00000000E+00  0.00000000E+00  0.00000000E+00
  0.00000000E+00  0.00000000E+00  0.00000000E+00
  0.00000000E+00  0.00000000E+00  0.00000000E+00
  0.00000000E+00  0.00000000E+00  0.00000000E+00
  0.00000000E+00  0.00000000E+00  0.00000000E+00
  0.00000000E+00  0.00000000E+00  0.00000000E+00
  0.00000000E+00  0.00000000E+00  0.00000000E+00
  0.00000000E+00  0.00000000E+00  0.00000000E+00
  0.00000000E+00  0.00000000E+00  0.00000000E+00
  0.00000000E+00  0.00000000E+00  0.00000000E+00
  0.00000000E+00  0.00000000E+00  0.00000000E+00
  0.00000000E+00  0.00000000E+00  0.00000000E+00
  0.00000000E+00  0.00000000E+00  0.00000000E+00
  0.00000000E+00  0.00000000E+00  0.00000000E+00
  0.00000000E+00  0.00000000E+00  0.00000000E+00
  0.00000000E+00  0.00000000E+00  0.00000000E+00
  0.00000000E+00  0.00000000E+00  0.00000000E+00
  0.00000000E+00  0.00000000E+00  0.00000000E+00
  0.00000000E+00  0.00000000E+00  0.00000000E+00
  0.00000000E+00  0.00000000E+00  0.00000000E+00
  0.00000000E+00  0.00000000E+00  0.00000000E+00
  0.00000000E+00  0.00000000E+00  0.00000000E+00
  0.00000000E+00  0.00000000E+00  0.00000000E+00
  0.00000000E+00  0.00000000E+00  0.00000000E+00
  0.00000000E+00  0.00000000E+00  0.00000000E+00
  0.00000000E+00  0.00000000E+00  0.00000000E+00
  0.00000000E+00  0.00000000E+00  0.00000000E+00
  0.00000000E+00  0.00000000E+00  0.00000000E+00
  0.00000000E+00  0.00000000E+00  0.00000000E+00
  0.00000000E+00  0.00000000E+00  0.00000000E+00
  0.00000000E+00  0.00000000E+00  0.00000000E+00
  0.00000000E+00  0.00000000E+00  0.00000000E+00
  0.00000000E+00  0.00000000E+00  0.00000000E+00
  0.00000000E+00  0.00000000E+00  0.00000000E+00
  0.00000000E+00  0.00000000E+00  0.00000000E+00
  0.00000000E+00  0.00000000E+00  0.00000000E+00
  0.00000000E+00  0.00000000E+00  0.00000000E+00
  0.00000000E+00  0.00000000E+00  0.00000000E+00
  0.00000000E+00  0.00000000E+00  0.00000000E+00
  0.00000000E+00  0.00000000E+00  0.00000000E+00
  0.00000000E+00  0.00000000E+00  0.00000000E+00
  0.00000000E+00  0.00000000E+00  0.00000000E+00
  0.00000000E+00  0.00000000E+00  0.00000000E+00
  0.00000000E+00  0.00000000E+00  0.00000000E+00
  0.00000000E+00  0.00000000E+00  0.00000000E+00
  0.00000000E+00  0.00000000E+00  0.00000000E+00
  0.00000000E+00  0.00000000E+00  0.00000000E+00
  0.00000000E+00  0.00000000E+00  0.00000000E+00
  0.00000000E+00  0.00000000E+00  0.00000000E+00
  0.00000000E+00  0.00000000E+00  0.00000000E+00
  0.00000000E+00  0.00000000E+00  0.00000000E+00
  0.00000000E+00  0.00000000E+00  0.00000000E+00
  0.00000000E+00  0.00000000E+00  0.00000000E+00
  0.00000000E+00  0.00000000E+00  0.00000000E+00
  0.00000000E+00  0.00000000E+00  0.00000000E+00
  0.00000000E+00  0.00000000E+00  0.00000000E+00
  0.00000000E+00  0.00000000E+00  0.00000000E+00
  0.00000000E+00  0.00000000E+00  0.00000000E+00
  0.00000000E+00  0.00000000E+00  0.00000000E+00
  0.00000000E+00  0.00000000E+00  0.00000000E+00
  0.00000000E+00  0.00000000E+00  0.00000000E+00
  0.00000000E+00  0.00000000E+00  0.00000000E+00
  0.00000000E+00  0.00000000E+00  0.00000000E+00
  0.00000000E+00  0.00000000E+00  0.00000000E+00
  0.00000000E+00  0.00000000E+00  0.00000000E+00
  0.00000000E+00  0.00000000E+00  0.00000000E+00