Zr  O  F  H                             
   1.00000000000000     
    14.6087084399999991    0.0000000000000000    0.0000000000000000
    -6.0995943700000002   13.5475736500000004    0.0000000000000000
     0.0000000000000000    0.0000000000000000   32.4658957799999968
   Zr   O    F    H 
    80   160     5     5
Selective dynamics
Direct
  0.1072999602879108  0.1107509020259130  0.3626799193464265   F   F   F
  0.3752027684508334  0.1411823791782822  0.3611695660103535   F   F   F
  0.3729099757713499  0.4229177172991427  0.3686418726315495   F   F   F
  0.0769991309152616  0.3675992767162413  0.3710084865553043   F   F   F
  0.4150241426110028  0.2799622327943538  0.4516720934905933   F   F   F
  0.1984057059501083  0.3151122314806543  0.4480415241448767   F   F   F
  0.1804103960495240  0.0775491807715696  0.4568444542699766   F   F   F
  0.4012433377734936  0.0448202538467086  0.4606724581803618   F   F   F
  0.2344424391150781  0.4480134719179034  0.5408472105925028   F   F   F
  0.0161400524639745  0.4843520754729411  0.5390958181964578   F   F   F
  0.4998527713696888  0.2495595232287187  0.5457642774149249   F   F   F
  0.2182112126040039  0.2133152672692802  0.5475478657807713   F   F   F
  0.0544528480541754  0.1215360422545036  0.6298075864914459   T   T   T
  0.3336031668292588  0.1560584911655600  0.6277082220164492   T   T   T
  0.3190381525291241  0.4149555569337611  0.6350875831428066   T   T   T
  0.0351664663309102  0.3829265482619872  0.6369025114110268   T   T   T
  0.3771646064682013  0.2834905024626407  0.7260693003224661   T   T   T
  0.1550039391989278  0.3306276440226229  0.7143782757374223   T   T   T
  0.1209569632264805  0.0758503315468340  0.7231268656244920   T   T   T
  0.3469321235424706  0.0541902383441314  0.7234507990987612   T   T   T
  0.1072999600997520  0.6107509023949831  0.3626799193464265   F   F   F
  0.3752027682626675  0.6411823795473524  0.3611695660103535   F   F   F
  0.3729099755831840  0.9229177176682128  0.3686418726315495   F   F   F
  0.0769991314116254  0.8675992770853114  0.3710084865553043   F   F   F
  0.4150241424228369  0.7799622331634239  0.4516720934905933   F   F   F
  0.1984057057619495  0.8151122318497244  0.4480415241448767   F   F   F
  0.1804103962376828  0.5775491804024995  0.4568444542699766   F   F   F
  0.4012433379616525  0.5448202534776385  0.4606724581803618   F   F   F
  0.2344424386187143  0.9480134715488333  0.5408472105925028   F   F   F
  0.0161400522758157  0.9843520758420112  0.5390958181964578   F   F   F
  0.4998527715578547  0.7495595228596557  0.5457642774149249   F   F   F
  0.2182112127921698  0.7133152669002101  0.5475478657807713   F   F   F
  0.0540575928556514  0.6197709129613450  0.6290178103511193   T   T   T
  0.3331958093325758  0.6513864534786470  0.6257349857409483   T   T   T
  0.3184898277580207  0.9183527946432434  0.6342675162322325   T   T   T
  0.0360705002906612  0.8813484385090873  0.6368796479673602   T   T   T
  0.3599236356690165  0.7741993055874271  0.7174155012429047   T   T   T
  0.1557728151402936  0.8244958400038270  0.7146319000386724   T   T   T
  0.1282223690989550  0.5846219274155757  0.7234017719080228   T   T   T
  0.3570131868134517  0.5519926724519397  0.7248800828076538   T   T   T
  0.6072999602879108  0.1107509020259130  0.3626799193464265   F   F   F
  0.8752027684508334  0.1411823791782822  0.3611695660103535   F   F   F
  0.8729099757713499  0.4229177172991427  0.3686418726315495   F   F   F
  0.5769991309152616  0.3675992767162413  0.3710084865553043   F   F   F
  0.9150241426110028  0.2799622327943538  0.4516720934905933   F   F   F
  0.6984057059501083  0.3151122314806543  0.4480415241448767   F   F   F
  0.6804103960495240  0.0775491807715696  0.4568444542699766   F   F   F
  0.9012433377734936  0.0448202538467086  0.4606724581803618   F   F   F
  0.7344424391150781  0.4480134719179034  0.5408472105925028   F   F   F
  0.5161400524639745  0.4843520754729411  0.5390958181964578   F   F   F
  0.9998527713696888  0.2495595232287187  0.5457642774149249   F   F   F
  0.7182112126040039  0.2133152672692802  0.5475478657807713   F   F   F
  0.5553157463789388  0.1208715210386036  0.6323826165533070   T   T   T
  0.8325748917900820  0.1563014496672619  0.6285182777992812   T   T   T
  0.8201160503827606  0.4159007163821853  0.6349278963742834   T   T   T
  0.5359712555973761  0.3835950461513953  0.6374140310513581   T   T   T
  0.8792050405828890  0.2844957599676709  0.7281342104034766   T   T   T
  0.6608944318909489  0.3337651618594412  0.7137004145726972   T   T   T
  0.6384890135296645  0.0834969626096887  0.7260861761541102   T   T   T
  0.8626603355628822  0.0531959525920360  0.7250283296815885   T   T   T
  0.6072999600997520  0.6107509023949831  0.3626799193464265   F   F   F
  0.8752027682626675  0.6411823795473524  0.3611695660103535   F   F   F
  0.8729099755831840  0.9229177176682128  0.3686418726315495   F   F   F
  0.5769991314116254  0.8675992770853114  0.3710084865553043   F   F   F
  0.9150241424228369  0.7799622331634239  0.4516720934905933   F   F   F
  0.6984057057619495  0.8151122318497244  0.4480415241448767   F   F   F
  0.6804103962376828  0.5775491804024995  0.4568444542699766   F   F   F
  0.9012433379616525  0.5448202534776385  0.4606724581803618   F   F   F
  0.7344424386187143  0.9480134715488333  0.5408472105925028   F   F   F
  0.5161400522758157  0.9843520758420112  0.5390958181964578   F   F   F
  0.9998527715578547  0.7495595228596557  0.5457642774149249   F   F   F
  0.7182112127921698  0.7133152669002101  0.5475478657807713   F   F   F
  0.5560679063143663  0.6193799867949349  0.6321436267607305   T   T   T
  0.8323958659380170  0.6518520613789187  0.6262224688175818   T   T   T
  0.8190192548815871  0.9183936605882841  0.6340888410217179   T   T   T
  0.5338400663668460  0.8824957835161437  0.6378336752511715   T   T   T
  0.8683294516340702  0.7782057515365139  0.7161315172788666   T   T   T
  0.6550398679814103  0.8318779509144413  0.7135296050960517   T   T   T
  0.6256735463861263  0.5803197532729452  0.7286630509839622   T   T   T
  0.8616155456315373  0.5568884471251735  0.7253011061565208   T   T   T
  0.1332582265626669  0.0059689038117909  0.4018946551303202   F   F   F
  0.2181988781032373  0.3661521172833773  0.3825003874881503   F   F   F
  0.3442342672352794  0.0153678283195759  0.3310424656331463   F   F   F
  0.2448769086493598  0.1532202571934320  0.3416956173386723   F   F   F
  0.4183450511797773  0.3018822266376802  0.3812778210674068   F   F   F
  0.4479630891185806  0.0541491356276893  0.3979564111383311   F   F   F
  0.0314071462063694  0.2142568009586014  0.3475222399669775   F   F   F
  0.0226551989466728  0.4641564239069496  0.3395728532397797   F   F   F
  0.4439043559933253  0.1765955828555335  0.4903745631379621   F   F   F
  0.0376710753307208  0.0432766736795003  0.4766665390927969   F   F   F
  0.1526998132164152  0.1823197248313164  0.4187291303502150   F   F   F
  0.0609778626800761  0.3186209200641628  0.4320697212870783   F   F   F
  0.2410437716299114  0.4716434307777320  0.4708552709769123   F   F   F
  0.2643985499594521  0.2237504121632909  0.4830709797220933   F   F   F
  0.3563347177442537  0.3876955036889598  0.4380853724283114   F   F   F
  0.3354974923431868  0.1352524710577967  0.4250661838045247   F   F   F
  0.2604301099607511  0.3429483656654639  0.5797765521564813   F   F   F
  0.3553411594725162  0.2126448018977953  0.5638597850510294   F   F   F
  0.4741103145572438  0.3547873036290881  0.5067627900516811   F   F   F
  0.3790288096649093  0.4850060784869754  0.5227594134782905   F   F   F
  0.0583022340726487  0.1417510576146626  0.5591551179124750   F   F   F
  0.0814467987013927  0.3927345269682263  0.5733121160164103   F   F   F
  0.1760565422169620  0.0558733964144196  0.5274894555519936   F   F   F
  0.1528366743269487  0.3047856851473938  0.5132875909207399   F   F   F
  0.0818793269568787  0.0140478964144691  0.6668085347414729   T   T   T
  0.1712008284689214  0.3753810787358217  0.6533752110820630   T   T   T
  0.2892192247330433  0.0221449427113719  0.5965542665332551   T   T   T
  0.1969529711262514  0.1566284683832184  0.6107186043955307   T   T   T
  0.3810448322506829  0.3114906536637291  0.6469718262187234   T   T   T
  0.3965459990919574  0.0629518871477524  0.6619069009653384   T   T   T
  0.4935503587045026  0.2245007799072942  0.6166378843598660   T   T   T
  0.4716500830635434  0.4761730653858728  0.6035976629358676   T   T   T
  0.3935302015551296  0.1731141894092826  0.7573563156230270   T   T   T
  0.4772516186785429  0.0307944920999873  0.7450608526590310   T   T   T
  0.1020984368608012  0.1884714659386202  0.6872488238669123   T   T   T
  0.0182120726547690  0.3347762066823065  0.7026121486576741   T   T   T
  0.1993818083931465  0.4799973616515000  0.7382575633443531   T   T   T
  0.1931839096163811  0.2245311110413125  0.7546395364623313   T   T   T
  0.3091320672607194  0.3878441455355207  0.7041576582958506   T   T   T
  0.2866428856138742  0.1488361724656708  0.6918616109357477   T   T   T
  0.1332582267508329  0.5059689034427208  0.4018946551303202   F   F   F
  0.2181988782913962  0.8661521169143072  0.3825003874881503   F   F   F
  0.3442342677316361  0.5153678286886461  0.3310424656331463   F   F   F
  0.2448769088375258  0.6532202568243619  0.3416956173386723   F   F   F
  0.4183450516761411  0.8018822270067503  0.3812778210674068   F   F   F
  0.4479630886222168  0.5541491352586192  0.3979564111383311   F   F   F
  0.0314071467027262  0.7142568013276644  0.3475222399669775   F   F   F
  0.0226551984503160  0.9641564235378794  0.3395728532397797   F   F   F
  0.4439043561814913  0.6765955824864633  0.4903745631379621   F   F   F
  0.0376710748343640  0.5432766733104302  0.4766665390927969   F   F   F
  0.1526998137127720  0.6823197252003865  0.4187291303502150   F   F   F
  0.0609778628682420  0.8186209196950927  0.4320697212870783   F   F   F
  0.2410437718180773  0.9716434304086619  0.4708552709769123   F   F   F
  0.2643985494630883  0.7237504117942208  0.4830709797220933   F   F   F
  0.3563347182406105  0.8876955040580299  0.4380853724283114   F   F   F
  0.3354974925313456  0.6352524706887266  0.4250661838045247   F   F   F
  0.2604301101489170  0.8429483652963938  0.5797765521564813   F   F   F
  0.3553411589761595  0.7126448015287252  0.5638597850510294   F   F   F
  0.4741103143690779  0.8547873039981582  0.5067627900516811   F   F   F
  0.3790288101612731  0.9850060788560455  0.5227594134782905   F   F   F
  0.0583022335762848  0.6417510572455924  0.5591551179124750   F   F   F
  0.0814467982050360  0.8927345265991562  0.5733121160164103   F   F   F
  0.1760565417206053  0.5558733960453495  0.5274894555519936   F   F   F
  0.1528366745151146  0.8047856847783237  0.5132875909207399   F   F   F
  0.0827281116095968  0.5155632047482502  0.6669972581943269   T   T   T
  0.1728438272538325  0.8780025767362648  0.6539462555601050   T   T   T
  0.2894415860690306  0.5201610291195277  0.5963330267660630   T   T   T
  0.1972017705437946  0.6548877819408951  0.6096861853317658   T   T   T
  0.3768225709483804  0.8097152661687531  0.6485097475506233   T   T   T
  0.3979185691979018  0.5600476981805422  0.6617541145213868   T   T   T
  0.4932030713782256  0.7247220572099408  0.6168129617590110   T   T   T
  0.4710103449781539  0.9753952706614777  0.6042036264419968   T   T   T
  0.3875347503722119  0.6798158684539150  0.7557341321781356   T   T   T
  0.4824885794995210  0.5392248120825817  0.7406407010826187   T   T   T
  0.1023387799947371  0.6914789040242572  0.6839952972852240   T   T   T
  0.0175188189791626  0.8315412645576542  0.7027057015476488   T   T   T
  0.1961492448103613  0.9802690704115289  0.7387666549055690   T   T   T
  0.2123605453119131  0.7318056398837920  0.7466117056904703   T   T   T
  0.3126537846007832  0.8940337483870431  0.7048086981493004   T   T   T
  0.2865986602801783  0.6428786679599238  0.6884275335509248   T   T   T
  0.6332582265626669  0.0059689038117909  0.4018946551303202   F   F   F
  0.7181988787877600  0.3661521172833773  0.3825003874881503   F   F   F
  0.8442342672352794  0.0153678283195759  0.3310424656331463   F   F   F
  0.7448769086493598  0.1532202571934320  0.3416956173386723   F   F   F
  0.9183450511797773  0.3018822266376802  0.3812778210674068   F   F   F
  0.9479630891185806  0.0541491356276893  0.3979564111383311   F   F   F
  0.5314071462063694  0.2142568009586014  0.3475222399669775   F   F   F
  0.5226551989466728  0.4641564239069496  0.3395728532397797   F   F   F
  0.9439043559933253  0.1765955828555335  0.4903745631379621   F   F   F
  0.5376710753307208  0.0432766736795003  0.4766665390927969   F   F   F
  0.6526998132164152  0.1823197248313164  0.4187291303502150   F   F   F
  0.5609778626800761  0.3186209200641628  0.4320697212870783   F   F   F
  0.7410437716299114  0.4716434307777320  0.4708552709769123   F   F   F
  0.7643985499594521  0.2237504121632909  0.4830709797220933   F   F   F
  0.8563347177442537  0.3876955036889598  0.4380853724283114   F   F   F
  0.8354974923431868  0.1352524710577967  0.4250661838045247   F   F   F
  0.7604301099607511  0.3429483656654639  0.5797765521564813   F   F   F
  0.8553411594725162  0.2126448018977953  0.5638597850510294   F   F   F
  0.9741103145572438  0.3547873036290881  0.5067627900516811   F   F   F
  0.8790288096649093  0.4850060784869754  0.5227594134782905   F   F   F
  0.5583022340726487  0.1417510576146626  0.5591551179124750   F   F   F
  0.5814467987013927  0.3927345269682263  0.5733121160164103   F   F   F
  0.6760565422169620  0.0558733964144196  0.5274894555519936   F   F   F
  0.6528366743269487  0.3047856851473938  0.5132875909207399   F   F   F
  0.5775483370000306  0.0111926144836489  0.6702794266274328   T   T   T
  0.6718607975085407  0.3745739312536013  0.6527804620407390   T   T   T
  0.7902338926812925  0.0225348722557906  0.5967307654907466   T   T   T
  0.6958033742843558  0.1540975769776472  0.6111692481656297   T   T   T
  0.8807144831733434  0.3104193256154697  0.6444520531610270   T   T   T
  0.8984868160049320  0.0643207314363566  0.6619649423374956   T   T   T
  0.9940517539035819  0.2252960228737299  0.6160210390418205   T   T   T
  0.9705986872468293  0.4758408607889347  0.6028703141882429   T   T   T
  0.9057492143556720  0.1766996386209355  0.7559797282187092   T   T   T
  0.9843080124537174  0.0250846141840562  0.7442593462302919   T   T   T
  0.6050122690791540  0.1881481781276183  0.6886040718685789   T   T   T
  0.5189920534778762  0.3320330633220123  0.7046671445481081   T   T   T
  0.7069049466024550  0.4782985132352063  0.7358833451316756   T   T   T
  0.7101519331977162  0.2385524360604346  0.7532707954755643   T   T   T
  0.8164467300727690  0.3901999555202884  0.7024817496944352   T   T   T
  0.7855575277947534  0.1497779466882993  0.6934033845727304   T   T   T
  0.6332582267508329  0.5059689034427208  0.4018946551303202   F   F   F
  0.7181988782913962  0.8661521169143072  0.3825003874881503   F   F   F
  0.8442342677316361  0.5153678286886461  0.3310424656331463   F   F   F
  0.7448769088375258  0.6532202568243619  0.3416956173386723   F   F   F
  0.9183450516761411  0.8018822270067503  0.3812778210674068   F   F   F
  0.9479630893067394  0.5541491352586192  0.3979564111383311   F   F   F
  0.5314071467027262  0.7142568013276644  0.3475222399669775   F   F   F
  0.5226551984503160  0.9641564235378794  0.3395728532397797   F   F   F
  0.9439043561814913  0.6765955824864633  0.4903745631379621   F   F   F
  0.5376710748343640  0.5432766733104302  0.4766665390927969   F   F   F
  0.6526998137127720  0.6823197252003865  0.4187291303502150   F   F   F
  0.5609778628682420  0.8186209196950927  0.4320697212870783   F   F   F
  0.7410437718180773  0.9716434304086619  0.4708552709769123   F   F   F
  0.7643985494630883  0.7237504117942208  0.4830709797220933   F   F   F
  0.8563347182406105  0.8876955040580299  0.4380853724283114   F   F   F
  0.8354974925313456  0.6352524706887266  0.4250661838045247   F   F   F
  0.7604301101489170  0.8429483652963938  0.5797765521564813   F   F   F
  0.8553411589761595  0.7126448015287252  0.5638597850510294   F   F   F
  0.9741103150536077  0.8547873039981582  0.5067627900516811   F   F   F
  0.8790288101612731  0.9850060788560455  0.5227594134782905   F   F   F
  0.5583022335762848  0.6417510572455924  0.5591551179124750   F   F   F
  0.5814467982050360  0.8927345265991562  0.5733121160164103   F   F   F
  0.6760565417206053  0.5558733960453495  0.5274894555519936   F   F   F
  0.6528366745151146  0.8047856847783237  0.5132875909207399   F   F   F
  0.5818553501230637  0.5124256660188952  0.6687092315546889   T   T   T
  0.6705762170889328  0.8773846369312948  0.6530600235986030   T   T   T
  0.7898429985494496  0.5208770681676105  0.5962818647954921   T   T   T
  0.6966236793320937  0.6547996458711137  0.6103292386104121   T   T   T
  0.8802417141062170  0.8096070790590788  0.6468137350134221   T   T   T
  0.8990131927788071  0.5627049284331145  0.6615927894196071   T   T   T
  0.9937075114458734  0.7255524854425253  0.6153689563092443   T   T   T
  0.9704584743175394  0.9757023359992603  0.6034359680020748   T   T   T
  0.8934554053300108  0.6843695174417432  0.7544471976431828   T   T   T
  0.9920931074542535  0.5476389574125758  0.7433772389110803   T   T   T
  0.6088279092446247  0.6907913824276458  0.6881946820793768   T   T   T
  0.5147805151442082  0.8293730532211214  0.7042457919357772   T   T   T
  0.7084237055262959  0.9788171783122447  0.7356794464401242   T   T   T
  0.7229358216761108  0.7498156165415147  0.7528737781861937   T   T   T
  0.8144552148561188  0.8906781197476866  0.7015011666996493   T   T   T
  0.7864164454039828  0.6459183006014507  0.6892726054829345   T   T   T
  0.6523945363462358  0.5871875162831622  0.7891376604850130   T   T   T
  0.4097875659012674  0.6910034500990877  0.8338813522889448   T   T   T
  0.3781642786525433  0.3457796569309848  0.7793781476852261   T   T   T
  0.6325485615177606  0.0693172891729661  0.7876367557011587   T   T   T
  0.8978053595058126  0.3543197642530074  0.7803337693982410   T   T   T
  0.7127453522897175  0.7211990636134838  0.7808376179327361   T   T   T
  0.4020221653531832  0.6862709869455641  0.8040270920613722   T   T   T
  0.2188965388250587  0.2411321376817190  0.7827057903324052   T   T   T
  0.4910228632309429  0.0404030750718614  0.7746765005574902   T   T   T
  0.7131087792946135  0.2355832055715835  0.7833016576589026   T   T   T
 
  0.00000000E+00  0.00000000E+00  0.00000000E+00
  0.00000000E+00  0.00000000E+00  0.00000000E+00
  0.00000000E+00  0.00000000E+00  0.00000000E+00
  0.00000000E+00  0.00000000E+00  0.00000000E+00
  0.00000000E+00  0.00000000E+00  0.00000000E+00
  0.00000000E+00  0.00000000E+00  0.00000000E+00
  0.00000000E+00  0.00000000E+00  0.00000000E+00
  0.00000000E+00  0.00000000E+00  0.00000000E+00
  0.00000000E+00  0.00000000E+00  0.00000000E+00
  0.00000000E+00  0.00000000E+00  0.00000000E+00
  0.00000000E+00  0.00000000E+00  0.00000000E+00
  0.00000000E+00  0.00000000E+00  0.00000000E+00
  0.00000000E+00  0.00000000E+00  0.00000000E+00
  0.00000000E+00  0.00000000E+00  0.00000000E+00
  0.00000000E+00  0.00000000E+00  0.00000000E+00
  0.00000000E+00  0.00000000E+00  0.00000000E+00
  0.00000000E+00  0.00000000E+00  0.00000000E+00
  0.00000000E+00  0.00000000E+00  0.00000000E+00
  0.00000000E+00  0.00000000E+00  0.00000000E+00
  0.00000000E+00  0.00000000E+00  0.00000000E+00
  0.00000000E+00  0.00000000E+00  0.00000000E+00
  0.00000000E+00  0.00000000E+00  0.00000000E+00
  0.00000000E+00  0.00000000E+00  0.00000000E+00
  0.00000000E+00  0.00000000E+00  0.00000000E+00
  0.00000000E+00  0.00000000E+00  0.00000000E+00
  0.00000000E+00  0.00000000E+00  0.00000000E+00
  0.00000000E+00  0.00000000E+00  0.00000000E+00
  0.00000000E+00  0.00000000E+00  0.00000000E+00
  0.00000000E+00  0.00000000E+00  0.00000000E+00
  0.00000000E+00  0.00000000E+00  0.00000000E+00
  0.00000000E+00  0.00000000E+00  0.00000000E+00
  0.00000000E+00  0.00000000E+00  0.00000000E+00
  0.00000000E+00  0.00000000E+00  0.00000000E+00
  0.00000000E+00  0.00000000E+00  0.00000000E+00
  0.00000000E+00  0.00000000E+00  0.00000000E+00
  0.00000000E+00  0.00000000E+00  0.00000000E+00
  0.00000000E+00  0.00000000E+00  0.00000000E+00
  0.00000000E+00  0.00000000E+00  0.00000000E+00
  0.00000000E+00  0.00000000E+00  0.00000000E+00
  0.00000000E+00  0.00000000E+00  0.00000000E+00
  0.00000000E+00  0.00000000E+00  0.00000000E+00
  0.00000000E+00  0.00000000E+00  0.00000000E+00
  0.00000000E+00  0.00000000E+00  0.00000000E+00
  0.00000000E+00  0.00000000E+00  0.00000000E+00
  0.00000000E+00  0.00000000E+00  0.00000000E+00
  0.00000000E+00  0.00000000E+00  0.00000000E+00
  0.00000000E+00  0.00000000E+00  0.00000000E+00
  0.00000000E+00  0.00000000E+00  0.00000000E+00
  0.00000000E+00  0.00000000E+00  0.00000000E+00
  0.00000000E+00  0.00000000E+00  0.00000000E+00
  0.00000000E+00  0.00000000E+00  0.00000000E+00
  0.00000000E+00  0.00000000E+00  0.00000000E+00
  0.00000000E+00  0.00000000E+00  0.00000000E+00
  0.00000000E+00  0.00000000E+00  0.00000000E+00
  0.00000000E+00  0.00000000E+00  0.00000000E+00
  0.00000000E+00  0.00000000E+00  0.00000000E+00
  0.00000000E+00  0.00000000E+00  0.00000000E+00
  0.00000000E+00  0.00000000E+00  0.00000000E+00
  0.00000000E+00  0.00000000E+00  0.00000000E+00
  0.00000000E+00  0.00000000E+00  0.00000000E+00
  0.00000000E+00  0.00000000E+00  0.00000000E+00
  0.00000000E+00  0.00000000E+00  0.00000000E+00
  0.00000000E+00  0.00000000E+00  0.00000000E+00
  0.00000000E+00  0.00000000E+00  0.00000000E+00
  0.00000000E+00  0.00000000E+00  0.00000000E+00
  0.00000000E+00  0.00000000E+00  0.00000000E+00
  0.00000000E+00  0.00000000E+00  0.00000000E+00
  0.00000000E+00  0.00000000E+00  0.00000000E+00
  0.00000000E+00  0.00000000E+00  0.00000000E+00
  0.00000000E+00  0.00000000E+00  0.00000000E+00
  0.00000000E+00  0.00000000E+00  0.00000000E+00
  0.00000000E+00  0.00000000E+00  0.00000000E+00
  0.00000000E+00  0.00000000E+00  0.00000000E+00
  0.00000000E+00  0.00000000E+00  0.00000000E+00
  0.00000000E+00  0.00000000E+00  0.00000000E+00
  0.00000000E+00  0.00000000E+00  0.00000000E+00
  0.00000000E+00  0.00000000E+00  0.00000000E+00
  0.00000000E+00  0.00000000E+00  0.00000000E+00
  0.00000000E+00  0.00000000E+00  0.00000000E+00
  0.00000000E+00  0.00000000E+00  0.00000000E+00
  0.00000000E+00  0.00000000E+00  0.00000000E+00
  0.00000000E+00  0.00000000E+00  0.00000000E+00
  0.00000000E+00  0.00000000E+00  0.00000000E+00
  0.00000000E+00  0.00000000E+00  0.00000000E+00
  0.00000000E+00  0.00000000E+00  0.00000000E+00
  0.00000000E+00  0.00000000E+00  0.00000000E+00
  0.00000000E+00  0.00000000E+00  0.00000000E+00
  0.00000000E+00  0.00000000E+00  0.00000000E+00
  0.00000000E+00  0.00000000E+00  0.00000000E+00
  0.00000000E+00  0.00000000E+00  0.00000000E+00
  0.00000000E+00  0.00000000E+00  0.00000000E+00
  0.00000000E+00  0.00000000E+00  0.00000000E+00
  0.00000000E+00  0.00000000E+00  0.00000000E+00
  0.00000000E+00  0.00000000E+00  0.00000000E+00
  0.00000000E+00  0.00000000E+00  0.00000000E+00
  0.00000000E+00  0.00000000E+00  0.00000000E+00
  0.00000000E+00  0.00000000E+00  0.00000000E+00
  0.00000000E+00  0.00000000E+00  0.00000000E+00
  0.00000000E+00  0.00000000E+00  0.00000000E+00
  0.00000000E+00  0.00000000E+00  0.00000000E+00
  0.00000000E+00  0.00000000E+00  0.00000000E+00
  0.00000000E+00  0.00000000E+00  0.00000000E+00
  0.00000000E+00  0.00000000E+00  0.00000000E+00
  0.00000000E+00  0.00000000E+00  0.00000000E+00
  0.00000000E+00  0.00000000E+00  0.00000000E+00
  0.00000000E+00  0.00000000E+00  0.00000000E+00
  0.00000000E+00  0.00000000E+00  0.00000000E+00
  0.00000000E+00  0.00000000E+00  0.00000000E+00
  0.00000000E+00  0.00000000E+00  0.00000000E+00
  0.00000000E+00  0.00000000E+00  0.00000000E+00
  0.00000000E+00  0.00000000E+00  0.00000000E+00
  0.00000000E+00  0.00000000E+00  0.00000000E+00
  0.00000000E+00  0.00000000E+00  0.00000000E+00
  0.00000000E+00  0.00000000E+00  0.00000000E+00
  0.00000000E+00  0.00000000E+00  0.00000000E+00
  0.00000000E+00  0.00000000E+00  0.00000000E+00
  0.00000000E+00  0.00000000E+00  0.00000000E+00
  0.00000000E+00  0.00000000E+00  0.00000000E+00
  0.00000000E+00  0.00000000E+00  0.00000000E+00
  0.00000000E+00  0.00000000E+00  0.00000000E+00
  0.00000000E+00  0.00000000E+00  0.00000000E+00
  0.00000000E+00  0.00000000E+00  0.00000000E+00
  0.00000000E+00  0.00000000E+00  0.00000000E+00
  0.00000000E+00  0.00000000E+00  0.00000000E+00
  0.00000000E+00  0.00000000E+00  0.00000000E+00
  0.00000000E+00  0.00000000E+00  0.00000000E+00
  0.00000000E+00  0.00000000E+00  0.00000000E+00
  0.00000000E+00  0.00000000E+00  0.00000000E+00
  0.00000000E+00  0.00000000E+00  0.00000000E+00
  0.00000000E+00  0.00000000E+00  0.00000000E+00
  0.00000000E+00  0.00000000E+00  0.00000000E+00
  0.00000000E+00  0.00000000E+00  0.00000000E+00
  0.00000000E+00  0.00000000E+00  0.00000000E+00
  0.00000000E+00  0.00000000E+00  0.00000000E+00
  0.00000000E+00  0.00000000E+00  0.00000000E+00
  0.00000000E+00  0.00000000E+00  0.00000000E+00
  0.00000000E+00  0.00000000E+00  0.00000000E+00
  0.00000000E+00  0.00000000E+00  0.00000000E+00
  0.00000000E+00  0.00000000E+00  0.00000000E+00
  0.00000000E+00  0.00000000E+00  0.00000000E+00
  0.00000000E+00  0.00000000E+00  0.00000000E+00
  0.00000000E+00  0.00000000E+00  0.00000000E+00
  0.00000000E+00  0.00000000E+00  0.00000000E+00
  0.00000000E+00  0.00000000E+00  0.00000000E+00
  0.00000000E+00  0.00000000E+00  0.00000000E+00
  0.00000000E+00  0.00000000E+00  0.00000000E+00
  0.00000000E+00  0.00000000E+00  0.00000000E+00
  0.00000000E+00  0.00000000E+00  0.00000000E+00
  0.00000000E+00  0.00000000E+00  0.00000000E+00
  0.00000000E+00  0.00000000E+00  0.00000000E+00
  0.00000000E+00  0.00000000E+00  0.00000000E+00
  0.00000000E+00  0.00000000E+00  0.00000000E+00
  0.00000000E+00  0.00000000E+00  0.00000000E+00
  0.00000000E+00  0.00000000E+00  0.00000000E+00
  0.00000000E+00  0.00000000E+00  0.00000000E+00
  0.00000000E+00  0.00000000E+00  0.00000000E+00
  0.00000000E+00  0.00000000E+00  0.00000000E+00
  0.00000000E+00  0.00000000E+00  0.00000000E+00
  0.00000000E+00  0.00000000E+00  0.00000000E+00
  0.00000000E+00  0.00000000E+00  0.00000000E+00
  0.00000000E+00  0.00000000E+00  0.00000000E+00
  0.00000000E+00  0.00000000E+00  0.00000000E+00
  0.00000000E+00  0.00000000E+00  0.00000000E+00
  0.00000000E+00  0.00000000E+00  0.00000000E+00
  0.00000000E+00  0.00000000E+00  0.00000000E+00
  0.00000000E+00  0.00000000E+00  0.00000000E+00
  0.00000000E+00  0.00000000E+00  0.00000000E+00
  0.00000000E+00  0.00000000E+00  0.00000000E+00
  0.00000000E+00  0.00000000E+00  0.00000000E+00
  0.00000000E+00  0.00000000E+00  0.00000000E+00
  0.00000000E+00  0.00000000E+00  0.00000000E+00
  0.00000000E+00  0.00000000E+00  0.00000000E+00
  0.00000000E+00  0.00000000E+00  0.00000000E+00
  0.00000000E+00  0.00000000E+00  0.00000000E+00
  0.00000000E+00  0.00000000E+00  0.00000000E+00
  0.00000000E+00  0.00000000E+00  0.00000000E+00
  0.00000000E+00  0.00000000E+00  0.00000000E+00
  0.00000000E+00  0.00000000E+00  0.00000000E+00
  0.00000000E+00  0.00000000E+00  0.00000000E+00
  0.00000000E+00  0.00000000E+00  0.00000000E+00
  0.00000000E+00  0.00000000E+00  0.00000000E+00
  0.00000000E+00  0.00000000E+00  0.00000000E+00
  0.00000000E+00  0.00000000E+00  0.00000000E+00
  0.00000000E+00  0.00000000E+00  0.00000000E+00
  0.00000000E+00  0.00000000E+00  0.00000000E+00
  0.00000000E+00  0.00000000E+00  0.00000000E+00
  0.00000000E+00  0.00000000E+00  0.00000000E+00
  0.00000000E+00  0.00000000E+00  0.00000000E+00
  0.00000000E+00  0.00000000E+00  0.00000000E+00
  0.00000000E+00  0.00000000E+00  0.00000000E+00
  0.00000000E+00  0.00000000E+00  0.00000000E+00
  0.00000000E+00  0.00000000E+00  0.00000000E+00
  0.00000000E+00  0.00000000E+00  0.00000000E+00
  0.00000000E+00  0.00000000E+00  0.00000000E+00
  0.00000000E+00  0.00000000E+00  0.00000000E+00
  0.00000000E+00  0.00000000E+00  0.00000000E+00
  0.00000000E+00  0.00000000E+00  0.00000000E+00
  0.00000000E+00  0.00000000E+00  0.00000000E+00
  0.00000000E+00  0.00000000E+00  0.00000000E+00
  0.00000000E+00  0.00000000E+00  0.00000000E+00
  0.00000000E+00  0.00000000E+00  0.00000000E+00
  0.00000000E+00  0.00000000E+00  0.00000000E+00
  0.00000000E+00  0.00000000E+00  0.00000000E+00
  0.00000000E+00  0.00000000E+00  0.00000000E+00
  0.00000000E+00  0.00000000E+00  0.00000000E+00
  0.00000000E+00  0.00000000E+00  0.00000000E+00
  0.00000000E+00  0.00000000E+00  0.00000000E+00
  0.00000000E+00  0.00000000E+00  0.00000000E+00
  0.00000000E+00  0.00000000E+00  0.00000000E+00
  0.00000000E+00  0.00000000E+00  0.00000000E+00
  0.00000000E+00  0.00000000E+00  0.00000000E+00
  0.00000000E+00  0.00000000E+00  0.00000000E+00
  0.00000000E+00  0.00000000E+00  0.00000000E+00
  0.00000000E+00  0.00000000E+00  0.00000000E+00
  0.00000000E+00  0.00000000E+00  0.00000000E+00
  0.00000000E+00  0.00000000E+00  0.00000000E+00
  0.00000000E+00  0.00000000E+00  0.00000000E+00
  0.00000000E+00  0.00000000E+00  0.00000000E+00
  0.00000000E+00  0.00000000E+00  0.00000000E+00
  0.00000000E+00  0.00000000E+00  0.00000000E+00
  0.00000000E+00  0.00000000E+00  0.00000000E+00
  0.00000000E+00  0.00000000E+00  0.00000000E+00
  0.00000000E+00  0.00000000E+00  0.00000000E+00
  0.00000000E+00  0.00000000E+00  0.00000000E+00
  0.00000000E+00  0.00000000E+00  0.00000000E+00
  0.00000000E+00  0.00000000E+00  0.00000000E+00
  0.00000000E+00  0.00000000E+00  0.00000000E+00
  0.00000000E+00  0.00000000E+00  0.00000000E+00
  0.00000000E+00  0.00000000E+00  0.00000000E+00
  0.00000000E+00  0.00000000E+00  0.00000000E+00
  0.00000000E+00  0.00000000E+00  0.00000000E+00
  0.00000000E+00  0.00000000E+00  0.00000000E+00