Hf  O  F  H                             
   1.00000000000000     
    14.6106902099999996    0.0000000000000000    0.0000000000000000
    -6.0999520900000004   13.5497369200000009    0.0000000000000000
     0.0000000000000000    0.0000000000000000   32.4676209000000000
   Hf   O    F    H 
    80   160     1     1
Direct
  0.1041842564462941  0.1066841567354442  0.3672188891838784
  0.3724437049353558  0.1391602496475236  0.3650371552055396
  0.3728434749421766  0.4227181074209457  0.3727126996378644
  0.0737644006111804  0.3634963565328414  0.3753200280591099
  0.4122282343591513  0.2774184028882615  0.4539695834995247
  0.1977393433632391  0.3149081523906276  0.4497141156669344
  0.1806230550444342  0.0774769755278953  0.4590273602292598
  0.3996784261548152  0.0426080115591051  0.4631487643179278
  0.2329824228876530  0.4460691506644986  0.5416620602272773
  0.0159328016968436  0.4840914330949050  0.5387370017036954
  0.5005259164293387  0.2502919601238368  0.5457432947386567
  0.2176885172175412  0.2130001570316344  0.5482246560151945
  0.0526971626811344  0.1190562694593228  0.6275903496253300
  0.3337018593437563  0.1537667321718829  0.6238054403420519
  0.3209318774751921  0.4199716521658310  0.6342219031955285
  0.0347428423567692  0.3811932560439164  0.6370471009886042
  0.3587657545184594  0.2727828527586679  0.7145708659068019
  0.1567269830530336  0.3302770177647441  0.7113647620328103
  0.1285797614510400  0.0881359502797698  0.7196659287572106
  0.3609301807544636  0.0570874479126931  0.7218613636658132
  0.1042081739770462  0.6066873243999602  0.3672347865921033
  0.3724702584551172  0.6391614079213865  0.3650859100667833
  0.3728127963194881  0.9225884227372473  0.3726901521838197
  0.0737715506261963  0.8634955645026984  0.3753270222832374
  0.4121099339196007  0.7771217839858556  0.4540099658506990
  0.1976623256984908  0.8146417580501640  0.4496903872869800
  0.1804875614784088  0.5771486954755758  0.4591116750765961
  0.3995556842347496  0.5424816967501036  0.4632731196406150
  0.2329856306960022  0.9462075129766588  0.5411315243287228
  0.0162762517179733  0.9844076084554322  0.5386293958792845
  0.4997864368206789  0.7493525275818299  0.5460526890222891
  0.2179444906291622  0.7118215884906153  0.5483702520160456
  0.0527441195419639  0.6191014705310806  0.6276141444500088
  0.3335526778120222  0.6525489504084826  0.6250989911233298
  0.3215992126009159  0.9189578724887130  0.6329577850701541
  0.0369476482216782  0.8823285577474723  0.6367916032050747
  0.3602031436213857  0.7729889947790409  0.7143513048893879
  0.1605495193852297  0.8328519935291460  0.7115139880247497
  0.1281363014639032  0.5891160485748899  0.7192928911317039
  0.3493871687534131  0.5507696889795515  0.7278262423948539
  0.6041184017313077  0.1066252376880403  0.3670772546539713
  0.8724398493743978  0.1390785236687022  0.3649744246710966
  0.8728539251026332  0.4226572172046517  0.3725921086037577
  0.5735982662895717  0.3634849857763009  0.3752405586256942
  0.9120678863676349  0.2771193720382819  0.4538373043302130
  0.6974747446523687  0.3144812315407757  0.4494835836772862
  0.6802633256981266  0.0769507444357937  0.4589167656596250
  0.8994717956516703  0.0423684250369900  0.4630942508808776
  0.7323038428210082  0.4457621249949660  0.5410010550992719
  0.5158347831824891  0.4842205404670980  0.5392111498190155
  0.0004268576197984  0.2501761445371261  0.5455804204860355
  0.7169056472578368  0.2117688677946112  0.5479160450589031
  0.5526416257364849  0.1186889827152187  0.6277362371377667
  0.8334191883795341  0.1534942475800624  0.6235430773955772
  0.8207998115127961  0.4186203215025480  0.6327641729559754
  0.5350937672169824  0.3811711141368093  0.6374773731959552
  0.8598882699123483  0.2728924810646389  0.7140292119778630
  0.6590972636354990  0.3313818273448721  0.7112395147382745
  0.6293236967573477  0.0889817732355183  0.7197187374957020
  0.8610467296332268  0.0571098249672746  0.7217523881615311
  0.6041002208640832  0.6066726830088498  0.3671153365646013
  0.8724480467709957  0.6390884290734870  0.3649944882859739
  0.8728058009904334  0.9226086801869939  0.3726186141568870
  0.5736198453724807  0.8633683915118117  0.3752867986320811
  0.9120244487190780  0.7771024074756421  0.4538569680376580
  0.6975083906586919  0.8144220590076556  0.4496047499448308
  0.6800896794039836  0.5770658899310667  0.4590080269774086
  0.8994538308563332  0.5423524887331443  0.4630922056314727
  0.7324277314360962  0.9455036471707686  0.5410988084666517
  0.5159211711399345  0.9837010856938291  0.5388398458553751
  0.0010066799986377  0.7502994259002130  0.5454602259061140
  0.7163620713800226  0.7116433127745159  0.5481181670353092
  0.5510679297334274  0.6182119312691496  0.6288605341072839
  0.8336783507982450  0.6538983181016468  0.6228817924290632
  0.8214846645864801  0.9192159365444547  0.6327696747448260
  0.5356707242018443  0.8810758764296955  0.6374698474240145
  0.8653435049920477  0.7775133667259072  0.7136939462032226
  0.6602173845970472  0.8324904783510841  0.7114171614974796
  0.6459831216705672  0.5936228727841124  0.7176564728977649
  0.8652366808167159  0.5572408748003805  0.7217657596337962
  0.1288194463000211  0.0029199925634968  0.4054537761880906
  0.2163012051289111  0.3656448595713034  0.3862981196752449
  0.2416878631031248  0.1484510055585074  0.3460394828823160
  0.4150086789758980  0.2986071288070342  0.3852078642713198
  0.4476193974408263  0.0540210449750485  0.4013456758196839
  0.0292432027627301  0.2128510170290540  0.3519379262443285
  0.0179934857428829  0.4601799700815688  0.3442162134689846
  0.4409407588524143  0.1748480484087730  0.4919691593916826
  0.0371069186703137  0.0438225075293316  0.4783021525859206
  0.1527874761130193  0.1809093240957393  0.4215345144499093
  0.0585757539092990  0.3148635236014282  0.4349101393443491
  0.2392763875277042  0.4693615424376517  0.4728921143440730
  0.2645466789029764  0.2243957275035282  0.4844873293952697
  0.3559380990504879  0.3874540090168269  0.4404604475236568
  0.3323767456912381  0.1316793270504828  0.4278750083815906
  0.2588341622694503  0.3424991596373021  0.5797466769650667
  0.3557904490865808  0.2148180193669315  0.5636660441649702
  0.4748601999739565  0.3543744110232544  0.5074977789280268
  0.3777889468023821  0.4819868223548098  0.5235989403791802
  0.0573105223365043  0.1405423730185299  0.5590048260195845
  0.0820677876230077  0.3938354935204579  0.5727071516117429
  0.1765059027079734  0.0560809644681780  0.5276127404256356
  0.1510093764591604  0.3027617114267694  0.5141917008159674
  0.0812187269932102  0.0158063406678272  0.6648402496905468
  0.1729158846607120  0.3798135729905546  0.6518480052471285
  0.2926394303243524  0.0216416267973393  0.5949270811504539
  0.1963390354639803  0.1527818259896460  0.6084663574879056
  0.3774694920951071  0.3088987655038939  0.6469962240105517
  0.4012967103314536  0.0647891513171562  0.6590133444915767
  0.4942573092313786  0.2270589785040941  0.6142577512621999
  0.4688518422240328  0.4719513212502921  0.6031538171088491
  0.3904643427727836  0.1824634492473615  0.7514876649786825
  0.4918853652477024  0.0479357720169826  0.7407837743088426
  0.1029594264104571  0.1923518505185016  0.6814457002627219
  0.0145933831955552  0.3280279895925045  0.6997297112494909
  0.1920874717109429  0.4826371743848868  0.7320305938123207
  0.2136186886352773  0.2333955205618636  0.7424173909923568
  0.3151024433592323  0.3959081498630812  0.7016370165081943
  0.2855060999324882  0.1416327286601303  0.6855567111464114
  0.1287689831114686  0.5028559100115180  0.4054782570224568
  0.2162672824343079  0.8655177450291609  0.3862719322121239
  0.2417130816974369  0.6484602907014864  0.3460829780721931
  0.4150198020935206  0.7984875422791027  0.3852195164126215
  0.4476088629119043  0.5540885569255566  0.4014170400844826
  0.0292596423855634  0.7128561774337955  0.3519512349847507
  0.0179453988940356  0.9601525826679924  0.3442168191782106
  0.4408270861993747  0.6746609249505280  0.4920726855857071
  0.0370380527625367  0.5436961718718196  0.4783591833678192
  0.1528026089469224  0.6807592770222839  0.4215871499444305
  0.0585837191081689  0.8148401616647297  0.4349043657930974
  0.2392884516086687  0.9694180315048709  0.4727416176561046
  0.2645540698567123  0.7239542504189876  0.4845958930792743
  0.3558554577981569  0.8872470448886394  0.4404488848114035
  0.3323335224828129  0.6315312846974970  0.4279258099826255
  0.2590642717951029  0.8422148041248280  0.5793938783473385
  0.3555207570454089  0.7134516599518184  0.5642214347760569
  0.4743085652623466  0.8535928157721155  0.5076610623838187
  0.3779133538301330  0.9818044932725651  0.5232963205266288
  0.0574361604294597  0.6404241310419863  0.5590448048861777
  0.0828844007792829  0.8941674076246663  0.5725800039903229
  0.1763015951820565  0.5557595529761850  0.5278031392801361
  0.1510355960141708  0.8024626474130024  0.5141140193648061
  0.0775777330613446  0.5148484776840311  0.6650072009504896
  0.1754218974405483  0.8813237394603107  0.6517232567288327
  0.2920976407101267  0.5213539536745547  0.5956948596934453
  0.1962269556289446  0.6522453880823309  0.6087837912542702
  0.3775753759662777  0.8085445160879176  0.6467073654592740
  0.4005555891935507  0.5633607127316324  0.6611880880220263
  0.4937493699773379  0.7260672029720261  0.6148588383179041
  0.4689635320910802  0.9718721843345028  0.6024230763925306
  0.3910814135297397  0.6837073790979915  0.7518209760115044
  0.5068114560111158  0.5509712922858963  0.7445080875874270
  0.1021771423477816  0.6935572229926419  0.6813603792067683
  0.0193155498312693  0.8335975790348675  0.7005147018687025
  0.2043173629118315  0.9833080990987273  0.7349997234241642
  0.2149322899407886  0.7365596946429556  0.7425613727129736
  0.3187521282825964  0.8979474893578289  0.7016500261213594
  0.2827048314656930  0.6420396018761473  0.6862023790858431
  0.6286769256825757  0.0027578187754725  0.4053334210977198
  0.7161335141574772  0.3654527351103691  0.3861757604684906
  0.7416558808016203  0.1484377556155154  0.3460064077798993
  0.9150420978287428  0.2984808066331238  0.3851889269979523
  0.9476503693996061  0.0539815765143162  0.4013163292303148
  0.5291025010168141  0.2128425759516519  0.3518720935459881
  0.5178453865211613  0.4602069105958928  0.3441439964277833
  0.9409789203641227  0.1746833806691625  0.4918215228673629
  0.5370346006458342  0.0434363297418703  0.4783987121494764
  0.6523991340292840  0.1805175456623009  0.4214572320329936
  0.5585050015240528  0.3148072809649651  0.4348406503084370
  0.7388613164672930  0.4692486425367974  0.4727214771586133
  0.7641961508560107  0.2237835275003325  0.4843410244999899
  0.8556680292897489  0.3872188684111615  0.4403515918292157
  0.8321394799020044  0.1313072515837221  0.4277839127629230
  0.7575952070142152  0.3416670738346612  0.5793511367414922
  0.8551194770438356  0.2141988557866600  0.5633103671796307
  0.9745093031178089  0.3540112812903503  0.5073239325469027
  0.8774077393615166  0.4815388859900400  0.5232256381895061
  0.5566218650118235  0.1401566755458480  0.5591672843290880
  0.5821049687664469  0.3938510422239794  0.5729301251148596
  0.6759142179617915  0.0553859915069251  0.5276832354938958
  0.6505326414229863  0.3021495362810474  0.5139443467754815
  0.5804191864329885  0.0152266891392992  0.6653720641071403
  0.6743204664328134  0.3810177488574811  0.6519139058112179
  0.7919048689121831  0.0210764980221197  0.5948151537204853
  0.6957398116115036  0.1518268998399165  0.6082658842919839
  0.8762273903842425  0.3082948746333348  0.6459369261803565
  0.9009825379287187  0.0648666430649926  0.6587712157641173
  0.9935906923596528  0.2265395417923118  0.6137244998752368
  0.9677468120696565  0.4720049320780629  0.6019722520794103
  0.8901852720365252  0.1823303436663068  0.7512984663285825
  0.9908960872249082  0.0460409234018162  0.7406811174578253
  0.6049890723381601  0.1933767344847821  0.6812917494791765
  0.5171498287522748  0.3308416096786527  0.7011239320029443
  0.7075076461131937  0.4859703660201585  0.7346110651963716
  0.7146098379633862  0.2354986344574471  0.7426908574395259
  0.8179676391783440  0.3970265679211424  0.7014167975335033
  0.7850767666890887  0.1416388088308058  0.6853427739849540
  0.6284374910912376  0.5027425050771627  0.4054244789184167
  0.7161386015283830  0.8653495864825363  0.3862413451703010
  0.7416226802871955  0.6484004364368662  0.3460482784790570
  0.9150501361928635  0.7984794784597282  0.3851999772859702
  0.9476462715098207  0.5539887725858700  0.4013216778290913
  0.5291583183108611  0.7127929802376884  0.3519055059935092
  0.5178103696632546  0.9600921117687403  0.3441573446411297
  0.9410790126687830  0.6746977789985749  0.4918479866514679
  0.5370231251339427  0.5438269203588142  0.4786627732387208
  0.6523856612236373  0.6805418300132816  0.4215104398808562
  0.5585128763722212  0.8148615283168792  0.4349343141949887
  0.7389256580429151  0.9690394185795905  0.4727391240079012
  0.7642711716857469  0.7238523357406907  0.4844284666688526
  0.8557265320256684  0.8871847449784992  0.4403804478563030
  0.8321704310182267  0.6313696050743846  0.4278100595325139
  0.7587547520316466  0.8419277124835610  0.5793617489612040
  0.8552470407523901  0.7143376201414935  0.5631910226133470
  0.9749310826065049  0.8541711649788546  0.5073270015289378
  0.8776712027728725  0.9816575729651463  0.5232544298536159
  0.5563004543547438  0.6398798900495486  0.5595812747097155
  0.5821849593189661  0.8929871321552657  0.5729384910832809
  0.6759283145038286  0.5557150973548588  0.5277891830832167
  0.6505023299284717  0.8017981682276112  0.5141121863549251
  0.5823518190304068  0.5156754382800667  0.6659216834014063
  0.6748354374413459  0.8808080186939001  0.6519404508141881
  0.7919004946998541  0.5212528115758100  0.5947559803632437
  0.6955523411424585  0.6524507700258686  0.6086747360591238
  0.8789980063104470  0.8097222582693683  0.6463204029752851
  0.9005425463457976  0.5647844628917480  0.6587853681294977
  0.9940817766380693  0.7271005649284952  0.6136405959151352
  0.9690344887137768  0.9724152238280835  0.6021366423596500
  0.8931138203265176  0.6836718712279086  0.7501675322112948
  0.9908802804499862  0.5452780179324069  0.7416894257904897
  0.6065346433644946  0.6926625818353758  0.6821364589913531
  0.5176548720299458  0.8301030755896047  0.7006578424384783
  0.7043181260002295  0.9829465222042642  0.7348767636093140
  0.7208360899153378  0.7379375536151791  0.7424796623795918
  0.8189729998362720  0.8983853248104845  0.7011553605699692
  0.7871990738867516  0.6447291849176802  0.6849240734533706
  0.8425241204385007  0.0134141207296273  0.3354935632084313
  0.8426263768670746  0.5134905590056700  0.3354725376996701
  0.3425899818924024  0.5135411797400204  0.3355370085200424
  0.3425344345651022  0.0134707947633126  0.3355299410954072
  0.3414893361146752  0.4824008316447598  0.7810151896697408
  0.4843802180527190  0.5280498930736358  0.7725353339169153
 
  0.00000000E+00  0.00000000E+00  0.00000000E+00
  0.00000000E+00  0.00000000E+00  0.00000000E+00
  0.00000000E+00  0.00000000E+00  0.00000000E+00
  0.00000000E+00  0.00000000E+00  0.00000000E+00
  0.00000000E+00  0.00000000E+00  0.00000000E+00
  0.00000000E+00  0.00000000E+00  0.00000000E+00
  0.00000000E+00  0.00000000E+00  0.00000000E+00
  0.00000000E+00  0.00000000E+00  0.00000000E+00
  0.00000000E+00  0.00000000E+00  0.00000000E+00
  0.00000000E+00  0.00000000E+00  0.00000000E+00
  0.00000000E+00  0.00000000E+00  0.00000000E+00
  0.00000000E+00  0.00000000E+00  0.00000000E+00
  0.00000000E+00  0.00000000E+00  0.00000000E+00
  0.00000000E+00  0.00000000E+00  0.00000000E+00
  0.00000000E+00  0.00000000E+00  0.00000000E+00
  0.00000000E+00  0.00000000E+00  0.00000000E+00
  0.00000000E+00  0.00000000E+00  0.00000000E+00
  0.00000000E+00  0.00000000E+00  0.00000000E+00
  0.00000000E+00  0.00000000E+00  0.00000000E+00
  0.00000000E+00  0.00000000E+00  0.00000000E+00
  0.00000000E+00  0.00000000E+00  0.00000000E+00
  0.00000000E+00  0.00000000E+00  0.00000000E+00
  0.00000000E+00  0.00000000E+00  0.00000000E+00
  0.00000000E+00  0.00000000E+00  0.00000000E+00
  0.00000000E+00  0.00000000E+00  0.00000000E+00
  0.00000000E+00  0.00000000E+00  0.00000000E+00
  0.00000000E+00  0.00000000E+00  0.00000000E+00
  0.00000000E+00  0.00000000E+00  0.00000000E+00
  0.00000000E+00  0.00000000E+00  0.00000000E+00
  0.00000000E+00  0.00000000E+00  0.00000000E+00
  0.00000000E+00  0.00000000E+00  0.00000000E+00
  0.00000000E+00  0.00000000E+00  0.00000000E+00
  0.00000000E+00  0.00000000E+00  0.00000000E+00
  0.00000000E+00  0.00000000E+00  0.00000000E+00
  0.00000000E+00  0.00000000E+00  0.00000000E+00
  0.00000000E+00  0.00000000E+00  0.00000000E+00
  0.00000000E+00  0.00000000E+00  0.00000000E+00
  0.00000000E+00  0.00000000E+00  0.00000000E+00
  0.00000000E+00  0.00000000E+00  0.00000000E+00
  0.00000000E+00  0.00000000E+00  0.00000000E+00
  0.00000000E+00  0.00000000E+00  0.00000000E+00
  0.00000000E+00  0.00000000E+00  0.00000000E+00
  0.00000000E+00  0.00000000E+00  0.00000000E+00
  0.00000000E+00  0.00000000E+00  0.00000000E+00
  0.00000000E+00  0.00000000E+00  0.00000000E+00
  0.00000000E+00  0.00000000E+00  0.00000000E+00
  0.00000000E+00  0.00000000E+00  0.00000000E+00
  0.00000000E+00  0.00000000E+00  0.00000000E+00
  0.00000000E+00  0.00000000E+00  0.00000000E+00
  0.00000000E+00  0.00000000E+00  0.00000000E+00
  0.00000000E+00  0.00000000E+00  0.00000000E+00
  0.00000000E+00  0.00000000E+00  0.00000000E+00
  0.00000000E+00  0.00000000E+00  0.00000000E+00
  0.00000000E+00  0.00000000E+00  0.00000000E+00
  0.00000000E+00  0.00000000E+00  0.00000000E+00
  0.00000000E+00  0.00000000E+00  0.00000000E+00
  0.00000000E+00  0.00000000E+00  0.00000000E+00
  0.00000000E+00  0.00000000E+00  0.00000000E+00
  0.00000000E+00  0.00000000E+00  0.00000000E+00
  0.00000000E+00  0.00000000E+00  0.00000000E+00
  0.00000000E+00  0.00000000E+00  0.00000000E+00
  0.00000000E+00  0.00000000E+00  0.00000000E+00
  0.00000000E+00  0.00000000E+00  0.00000000E+00
  0.00000000E+00  0.00000000E+00  0.00000000E+00
  0.00000000E+00  0.00000000E+00  0.00000000E+00
  0.00000000E+00  0.00000000E+00  0.00000000E+00
  0.00000000E+00  0.00000000E+00  0.00000000E+00
  0.00000000E+00  0.00000000E+00  0.00000000E+00
  0.00000000E+00  0.00000000E+00  0.00000000E+00
  0.00000000E+00  0.00000000E+00  0.00000000E+00
  0.00000000E+00  0.00000000E+00  0.00000000E+00
  0.00000000E+00  0.00000000E+00  0.00000000E+00
  0.00000000E+00  0.00000000E+00  0.00000000E+00
  0.00000000E+00  0.00000000E+00  0.00000000E+00
  0.00000000E+00  0.00000000E+00  0.00000000E+00
  0.00000000E+00  0.00000000E+00  0.00000000E+00
  0.00000000E+00  0.00000000E+00  0.00000000E+00
  0.00000000E+00  0.00000000E+00  0.00000000E+00
  0.00000000E+00  0.00000000E+00  0.00000000E+00
  0.00000000E+00  0.00000000E+00  0.00000000E+00
  0.00000000E+00  0.00000000E+00  0.00000000E+00
  0.00000000E+00  0.00000000E+00  0.00000000E+00
  0.00000000E+00  0.00000000E+00  0.00000000E+00
  0.00000000E+00  0.00000000E+00  0.00000000E+00
  0.00000000E+00  0.00000000E+00  0.00000000E+00
  0.00000000E+00  0.00000000E+00  0.00000000E+00
  0.00000000E+00  0.00000000E+00  0.00000000E+00
  0.00000000E+00  0.00000000E+00  0.00000000E+00
  0.00000000E+00  0.00000000E+00  0.00000000E+00
  0.00000000E+00  0.00000000E+00  0.00000000E+00
  0.00000000E+00  0.00000000E+00  0.00000000E+00
  0.00000000E+00  0.00000000E+00  0.00000000E+00
  0.00000000E+00  0.00000000E+00  0.00000000E+00
  0.00000000E+00  0.00000000E+00  0.00000000E+00
  0.00000000E+00  0.00000000E+00  0.00000000E+00
  0.00000000E+00  0.00000000E+00  0.00000000E+00
  0.00000000E+00  0.00000000E+00  0.00000000E+00
  0.00000000E+00  0.00000000E+00  0.00000000E+00
  0.00000000E+00  0.00000000E+00  0.00000000E+00
  0.00000000E+00  0.00000000E+00  0.00000000E+00
  0.00000000E+00  0.00000000E+00  0.00000000E+00
  0.00000000E+00  0.00000000E+00  0.00000000E+00
  0.00000000E+00  0.00000000E+00  0.00000000E+00
  0.00000000E+00  0.00000000E+00  0.00000000E+00
  0.00000000E+00  0.00000000E+00  0.00000000E+00
  0.00000000E+00  0.00000000E+00  0.00000000E+00
  0.00000000E+00  0.00000000E+00  0.00000000E+00
  0.00000000E+00  0.00000000E+00  0.00000000E+00
  0.00000000E+00  0.00000000E+00  0.00000000E+00
  0.00000000E+00  0.00000000E+00  0.00000000E+00
  0.00000000E+00  0.00000000E+00  0.00000000E+00
  0.00000000E+00  0.00000000E+00  0.00000000E+00
  0.00000000E+00  0.00000000E+00  0.00000000E+00
  0.00000000E+00  0.00000000E+00  0.00000000E+00
  0.00000000E+00  0.00000000E+00  0.00000000E+00
  0.00000000E+00  0.00000000E+00  0.00000000E+00
  0.00000000E+00  0.00000000E+00  0.00000000E+00
  0.00000000E+00  0.00000000E+00  0.00000000E+00
  0.00000000E+00  0.00000000E+00  0.00000000E+00
  0.00000000E+00  0.00000000E+00  0.00000000E+00
  0.00000000E+00  0.00000000E+00  0.00000000E+00
  0.00000000E+00  0.00000000E+00  0.00000000E+00
  0.00000000E+00  0.00000000E+00  0.00000000E+00
  0.00000000E+00  0.00000000E+00  0.00000000E+00
  0.00000000E+00  0.00000000E+00  0.00000000E+00
  0.00000000E+00  0.00000000E+00  0.00000000E+00
  0.00000000E+00  0.00000000E+00  0.00000000E+00
  0.00000000E+00  0.00000000E+00  0.00000000E+00
  0.00000000E+00  0.00000000E+00  0.00000000E+00
  0.00000000E+00  0.00000000E+00  0.00000000E+00
  0.00000000E+00  0.00000000E+00  0.00000000E+00
  0.00000000E+00  0.00000000E+00  0.00000000E+00
  0.00000000E+00  0.00000000E+00  0.00000000E+00
  0.00000000E+00  0.00000000E+00  0.00000000E+00
  0.00000000E+00  0.00000000E+00  0.00000000E+00
  0.00000000E+00  0.00000000E+00  0.00000000E+00
  0.00000000E+00  0.00000000E+00  0.00000000E+00
  0.00000000E+00  0.00000000E+00  0.00000000E+00
  0.00000000E+00  0.00000000E+00  0.00000000E+00
  0.00000000E+00  0.00000000E+00  0.00000000E+00
  0.00000000E+00  0.00000000E+00  0.00000000E+00
  0.00000000E+00  0.00000000E+00  0.00000000E+00
  0.00000000E+00  0.00000000E+00  0.00000000E+00
  0.00000000E+00  0.00000000E+00  0.00000000E+00
  0.00000000E+00  0.00000000E+00  0.00000000E+00
  0.00000000E+00  0.00000000E+00  0.00000000E+00
  0.00000000E+00  0.00000000E+00  0.00000000E+00
  0.00000000E+00  0.00000000E+00  0.00000000E+00
  0.00000000E+00  0.00000000E+00  0.00000000E+00
  0.00000000E+00  0.00000000E+00  0.00000000E+00
  0.00000000E+00  0.00000000E+00  0.00000000E+00
  0.00000000E+00  0.00000000E+00  0.00000000E+00
  0.00000000E+00  0.00000000E+00  0.00000000E+00
  0.00000000E+00  0.00000000E+00  0.00000000E+00
  0.00000000E+00  0.00000000E+00  0.00000000E+00
  0.00000000E+00  0.00000000E+00  0.00000000E+00
  0.00000000E+00  0.00000000E+00  0.00000000E+00
  0.00000000E+00  0.00000000E+00  0.00000000E+00
  0.00000000E+00  0.00000000E+00  0.00000000E+00
  0.00000000E+00  0.00000000E+00  0.00000000E+00
  0.00000000E+00  0.00000000E+00  0.00000000E+00
  0.00000000E+00  0.00000000E+00  0.00000000E+00
  0.00000000E+00  0.00000000E+00  0.00000000E+00
  0.00000000E+00  0.00000000E+00  0.00000000E+00
  0.00000000E+00  0.00000000E+00  0.00000000E+00
  0.00000000E+00  0.00000000E+00  0.00000000E+00
  0.00000000E+00  0.00000000E+00  0.00000000E+00
  0.00000000E+00  0.00000000E+00  0.00000000E+00
  0.00000000E+00  0.00000000E+00  0.00000000E+00
  0.00000000E+00  0.00000000E+00  0.00000000E+00
  0.00000000E+00  0.00000000E+00  0.00000000E+00
  0.00000000E+00  0.00000000E+00  0.00000000E+00
  0.00000000E+00  0.00000000E+00  0.00000000E+00
  0.00000000E+00  0.00000000E+00  0.00000000E+00
  0.00000000E+00  0.00000000E+00  0.00000000E+00
  0.00000000E+00  0.00000000E+00  0.00000000E+00
  0.00000000E+00  0.00000000E+00  0.00000000E+00
  0.00000000E+00  0.00000000E+00  0.00000000E+00
  0.00000000E+00  0.00000000E+00  0.00000000E+00
  0.00000000E+00  0.00000000E+00  0.00000000E+00
  0.00000000E+00  0.00000000E+00  0.00000000E+00
  0.00000000E+00  0.00000000E+00  0.00000000E+00
  0.00000000E+00  0.00000000E+00  0.00000000E+00
  0.00000000E+00  0.00000000E+00  0.00000000E+00
  0.00000000E+00  0.00000000E+00  0.00000000E+00
  0.00000000E+00  0.00000000E+00  0.00000000E+00
  0.00000000E+00  0.00000000E+00  0.00000000E+00
  0.00000000E+00  0.00000000E+00  0.00000000E+00
  0.00000000E+00  0.00000000E+00  0.00000000E+00
  0.00000000E+00  0.00000000E+00  0.00000000E+00
  0.00000000E+00  0.00000000E+00  0.00000000E+00
  0.00000000E+00  0.00000000E+00  0.00000000E+00
  0.00000000E+00  0.00000000E+00  0.00000000E+00
  0.00000000E+00  0.00000000E+00  0.00000000E+00
  0.00000000E+00  0.00000000E+00  0.00000000E+00
  0.00000000E+00  0.00000000E+00  0.00000000E+00
  0.00000000E+00  0.00000000E+00  0.00000000E+00
  0.00000000E+00  0.00000000E+00  0.00000000E+00
  0.00000000E+00  0.00000000E+00  0.00000000E+00
  0.00000000E+00  0.00000000E+00  0.00000000E+00
  0.00000000E+00  0.00000000E+00  0.00000000E+00
  0.00000000E+00  0.00000000E+00  0.00000000E+00
  0.00000000E+00  0.00000000E+00  0.00000000E+00
  0.00000000E+00  0.00000000E+00  0.00000000E+00
  0.00000000E+00  0.00000000E+00  0.00000000E+00
  0.00000000E+00  0.00000000E+00  0.00000000E+00
  0.00000000E+00  0.00000000E+00  0.00000000E+00
  0.00000000E+00  0.00000000E+00  0.00000000E+00
  0.00000000E+00  0.00000000E+00  0.00000000E+00
  0.00000000E+00  0.00000000E+00  0.00000000E+00
  0.00000000E+00  0.00000000E+00  0.00000000E+00
  0.00000000E+00  0.00000000E+00  0.00000000E+00
  0.00000000E+00  0.00000000E+00  0.00000000E+00
  0.00000000E+00  0.00000000E+00  0.00000000E+00
  0.00000000E+00  0.00000000E+00  0.00000000E+00
  0.00000000E+00  0.00000000E+00  0.00000000E+00
  0.00000000E+00  0.00000000E+00  0.00000000E+00
  0.00000000E+00  0.00000000E+00  0.00000000E+00
  0.00000000E+00  0.00000000E+00  0.00000000E+00
  0.00000000E+00  0.00000000E+00  0.00000000E+00
  0.00000000E+00  0.00000000E+00  0.00000000E+00
  0.00000000E+00  0.00000000E+00  0.00000000E+00
  0.00000000E+00  0.00000000E+00  0.00000000E+00
  0.00000000E+00  0.00000000E+00  0.00000000E+00
  0.00000000E+00  0.00000000E+00  0.00000000E+00
  0.00000000E+00  0.00000000E+00  0.00000000E+00
  0.00000000E+00  0.00000000E+00  0.00000000E+00
  0.00000000E+00  0.00000000E+00  0.00000000E+00
  0.00000000E+00  0.00000000E+00  0.00000000E+00
  0.00000000E+00  0.00000000E+00  0.00000000E+00
  0.00000000E+00  0.00000000E+00  0.00000000E+00
  0.00000000E+00  0.00000000E+00  0.00000000E+00
  0.00000000E+00  0.00000000E+00  0.00000000E+00
  0.00000000E+00  0.00000000E+00  0.00000000E+00
  0.00000000E+00  0.00000000E+00  0.00000000E+00
  0.00000000E+00  0.00000000E+00  0.00000000E+00
  0.00000000E+00  0.00000000E+00  0.00000000E+00
  0.00000000E+00  0.00000000E+00  0.00000000E+00
  0.00000000E+00  0.00000000E+00  0.00000000E+00
  0.00000000E+00  0.00000000E+00  0.00000000E+00
  0.00000000E+00  0.00000000E+00  0.00000000E+00
  0.00000000E+00  0.00000000E+00  0.00000000E+00
