Zr  O  F  H                             
   1.00000000000000     
    14.6087084399999991    0.0000000000000000    0.0000000000000000
    -6.0995943700000002   13.5475736500000004    0.0000000000000000
     0.0000000000000000    0.0000000000000000   32.4658957799999968
   Zr   O    F    H 
    80   160     8     8
Selective dynamics
Direct
  0.1072999602879108  0.1107509020259130  0.3626799193464265   F   F   F
  0.3752027684508334  0.1411823791782822  0.3611695660103535   F   F   F
  0.3729099757713499  0.4229177172991427  0.3686418726315495   F   F   F
  0.0769991309152616  0.3675992767162413  0.3710084865553043   F   F   F
  0.4150241426110028  0.2799622327943538  0.4516720934905933   F   F   F
  0.1984057059501083  0.3151122314806543  0.4480415241448767   F   F   F
  0.1804103960495240  0.0775491807715696  0.4568444542699766   F   F   F
  0.4012433377734936  0.0448202538467086  0.4606724581803618   F   F   F
  0.2344424391150781  0.4480134719179034  0.5408472105925028   F   F   F
  0.0161400524639745  0.4843520754729411  0.5390958181964578   F   F   F
  0.4998527713696888  0.2495595232287187  0.5457642774149249   F   F   F
  0.2182112126040039  0.2133152672692802  0.5475478657807713   F   F   F
  0.0532129194252702  0.1197611471667915  0.6292011172308052   T   T   T
  0.3325644453521899  0.1556279850133925  0.6281351875463527   T   T   T
  0.3197989967409123  0.4153466321489706  0.6340035180087055   T   T   T
  0.0352777164807599  0.3830196736711143  0.6373488731806811   T   T   T
  0.3754978378460977  0.2819223958614270  0.7264680889497709   T   T   T
  0.1565056867517673  0.3280932087155342  0.7127682098721173   T   T   T
  0.1242552293809445  0.0762200781129921  0.7220252612777680   T   T   T
  0.3585170156688676  0.0522978518802379  0.7248612559052519   T   T   T
  0.1072999600997520  0.6107509023949831  0.3626799193464265   F   F   F
  0.3752027682626675  0.6411823795473524  0.3611695660103535   F   F   F
  0.3729099755831840  0.9229177176682128  0.3686418726315495   F   F   F
  0.0769991314116254  0.8675992770853114  0.3710084865553043   F   F   F
  0.4150241424228369  0.7799622331634239  0.4516720934905933   F   F   F
  0.1984057057619495  0.8151122318497244  0.4480415241448767   F   F   F
  0.1804103962376828  0.5775491804024995  0.4568444542699766   F   F   F
  0.4012433379616525  0.5448202534776385  0.4606724581803618   F   F   F
  0.2344424386187143  0.9480134715488333  0.5408472105925028   F   F   F
  0.0161400522758157  0.9843520758420112  0.5390958181964578   F   F   F
  0.4998527715578547  0.7495595228596557  0.5457642774149249   F   F   F
  0.2182112127921698  0.7133152669002101  0.5475478657807713   F   F   F
  0.0540137459153176  0.6183840819817944  0.6323589037399436   T   T   T
  0.3322478836959164  0.6526470306780270  0.6260146484449222   T   T   T
  0.3183681308605781  0.9192988420049303  0.6334294872360885   T   T   T
  0.0320902488767098  0.8812767321207834  0.6359378547891879   T   T   T
  0.3699241995333579  0.7877537787685838  0.7141982578795490   T   T   T
  0.1529318252184999  0.8317732313102348  0.7131361756645905   T   T   T
  0.1398148242677564  0.5834895374366299  0.7262501224842425   T   T   T
  0.3614946124679062  0.5480058289018808  0.7235934881751110   T   T   T
  0.6072999602879108  0.1107509020259130  0.3626799193464265   F   F   F
  0.8752027684508334  0.1411823791782822  0.3611695660103535   F   F   F
  0.8729099757713499  0.4229177172991427  0.3686418726315495   F   F   F
  0.5769991309152616  0.3675992767162413  0.3710084865553043   F   F   F
  0.9150241426110028  0.2799622327943538  0.4516720934905933   F   F   F
  0.6984057059501083  0.3151122314806543  0.4480415241448767   F   F   F
  0.6804103960495240  0.0775491807715696  0.4568444542699766   F   F   F
  0.9012433377734936  0.0448202538467086  0.4606724581803618   F   F   F
  0.7344424391150781  0.4480134719179034  0.5408472105925028   F   F   F
  0.5161400524639745  0.4843520754729411  0.5390958181964578   F   F   F
  0.9998527713696888  0.2495595232287187  0.5457642774149249   F   F   F
  0.7182112126040039  0.2133152672692802  0.5475478657807713   F   F   F
  0.5553259221408023  0.1192772624314553  0.6320598323992812   T   T   T
  0.8318273912741719  0.1543763794480971  0.6287007078028203   T   T   T
  0.8185472166636156  0.4166521029487605  0.6352996442222590   T   T   T
  0.5335856304889429  0.3804079813598310  0.6360265308118683   T   T   T
  0.8761675659708901  0.2806219086723648  0.7256020224199614   T   T   T
  0.6517654923697596  0.3263949477995617  0.7134879140961157   T   T   T
  0.6236804277001424  0.0760738628905994  0.7303171527806043   T   T   T
  0.8574050170778414  0.0532002232877790  0.7247611466350380   T   T   T
  0.6072999600997520  0.6107509023949831  0.3626799193464265   F   F   F
  0.8752027682626675  0.6411823795473524  0.3611695660103535   F   F   F
  0.8729099755831840  0.9229177176682128  0.3686418726315495   F   F   F
  0.5769991314116254  0.8675992770853114  0.3710084865553043   F   F   F
  0.9150241424228369  0.7799622331634239  0.4516720934905933   F   F   F
  0.6984057057619495  0.8151122318497244  0.4480415241448767   F   F   F
  0.6804103962376828  0.5775491804024995  0.4568444542699766   F   F   F
  0.9012433379616525  0.5448202534776385  0.4606724581803618   F   F   F
  0.7344424386187143  0.9480134715488333  0.5408472105925028   F   F   F
  0.5161400522758157  0.9843520758420112  0.5390958181964578   F   F   F
  0.9998527715578547  0.7495595228596557  0.5457642774149249   F   F   F
  0.7182112127921698  0.7133152669002101  0.5475478657807713   F   F   F
  0.5567042990421252  0.6228154024783605  0.6297929306400244   T   T   T
  0.8339327580716407  0.6528313907186667  0.6288475359193049   T   T   T
  0.8138246485189651  0.9149886769620970  0.6352444413107949   T   T   T
  0.5392641432154972  0.8849859791971401  0.6375028417120340   T   T   T
  0.8734325406634474  0.7885187260642674  0.7229631443278877   T   T   T
  0.6523817949921201  0.8277488665234209  0.7197793015164479   T   T   T
  0.6235402001829056  0.5772519693788836  0.7221073174583057   T   T   T
  0.8457898377940329  0.5423907292385458  0.7286626046868424   T   T   T
  0.1332582265626669  0.0059689038117909  0.4018946551303202   F   F   F
  0.2181988781032373  0.3661521172833773  0.3825003874881503   F   F   F
  0.3442342672352794  0.0153678283195759  0.3310424656331463   F   F   F
  0.2448769086493598  0.1532202571934320  0.3416956173386723   F   F   F
  0.4183450511797773  0.3018822266376802  0.3812778210674068   F   F   F
  0.4479630891185806  0.0541491356276893  0.3979564111383311   F   F   F
  0.0314071462063694  0.2142568009586014  0.3475222399669775   F   F   F
  0.0226551989466728  0.4641564239069496  0.3395728532397797   F   F   F
  0.4439043559933253  0.1765955828555335  0.4903745631379621   F   F   F
  0.0376710753307208  0.0432766736795003  0.4766665390927969   F   F   F
  0.1526998132164152  0.1823197248313164  0.4187291303502150   F   F   F
  0.0609778626800761  0.3186209200641628  0.4320697212870783   F   F   F
  0.2410437716299114  0.4716434307777320  0.4708552709769123   F   F   F
  0.2643985499594521  0.2237504121632909  0.4830709797220933   F   F   F
  0.3563347177442537  0.3876955036889598  0.4380853724283114   F   F   F
  0.3354974923431868  0.1352524710577967  0.4250661838045247   F   F   F
  0.2604301099607511  0.3429483656654639  0.5797765521564813   F   F   F
  0.3553411594725162  0.2126448018977953  0.5638597850510294   F   F   F
  0.4741103145572438  0.3547873036290881  0.5067627900516811   F   F   F
  0.3790288096649093  0.4850060784869754  0.5227594134782905   F   F   F
  0.0583022340726487  0.1417510576146626  0.5591551179124750   F   F   F
  0.0814467987013927  0.3927345269682263  0.5733121160164103   F   F   F
  0.1760565422169620  0.0558733964144196  0.5274894555519936   F   F   F
  0.1528366743269487  0.3047856851473938  0.5132875909207399   F   F   F
  0.0847203452536673  0.0141136818197814  0.6656425220040475   T   T   T
  0.1730819606527613  0.3758081181026584  0.6527475743568479   T   T   T
  0.2882793877326508  0.0219430757390806  0.5964845387250590   T   T   T
  0.1964726362574788  0.1555145586175447  0.6100959727107945   T   T   T
  0.3790601356726709  0.3108357904516491  0.6442379297578212   T   T   T
  0.3959930233352483  0.0623889281519871  0.6615856630775858   T   T   T
  0.4930750697012891  0.2244122843895761  0.6164507685735643   T   T   T
  0.4710545814824262  0.4772801802530057  0.6029831177024122   T   T   T
  0.4044478474400112  0.1770480238255543  0.7577028808446665   T   T   T
  0.4746602732990760  0.0195212187268126  0.7398224136264454   T   T   T
  0.1091729787256312  0.1900683594586309  0.6852866249290598   T   T   T
  0.0198997507219510  0.3305211833922623  0.7028230463560388   T   T   T
  0.2082491388986873  0.4778951613147488  0.7351250424057639   T   T   T
  0.1989037157979396  0.2259819252075201  0.7537049050427751   T   T   T
  0.3160073300906404  0.3902401677819001  0.7035520374727894   T   T   T
  0.2907760872075225  0.1510128940712046  0.6927672210352668   T   T   T
  0.1332582267508329  0.5059689034427208  0.4018946551303202   F   F   F
  0.2181988782913962  0.8661521169143072  0.3825003874881503   F   F   F
  0.3442342677316361  0.5153678286886461  0.3310424656331463   F   F   F
  0.2448769088375258  0.6532202568243619  0.3416956173386723   F   F   F
  0.4183450516761411  0.8018822270067503  0.3812778210674068   F   F   F
  0.4479630886222168  0.5541491352586192  0.3979564111383311   F   F   F
  0.0314071467027262  0.7142568013276644  0.3475222399669775   F   F   F
  0.0226551984503160  0.9641564235378794  0.3395728532397797   F   F   F
  0.4439043561814913  0.6765955824864633  0.4903745631379621   F   F   F
  0.0376710748343640  0.5432766733104302  0.4766665390927969   F   F   F
  0.1526998137127720  0.6823197252003865  0.4187291303502150   F   F   F
  0.0609778628682420  0.8186209196950927  0.4320697212870783   F   F   F
  0.2410437718180773  0.9716434304086619  0.4708552709769123   F   F   F
  0.2643985494630883  0.7237504117942208  0.4830709797220933   F   F   F
  0.3563347182406105  0.8876955040580299  0.4380853724283114   F   F   F
  0.3354974925313456  0.6352524706887266  0.4250661838045247   F   F   F
  0.2604301101489170  0.8429483652963938  0.5797765521564813   F   F   F
  0.3553411589761595  0.7126448015287252  0.5638597850510294   F   F   F
  0.4741103143690779  0.8547873039981582  0.5067627900516811   F   F   F
  0.3790288101612731  0.9850060788560455  0.5227594134782905   F   F   F
  0.0583022335762848  0.6417510572455924  0.5591551179124750   F   F   F
  0.0814467982050360  0.8927345265991562  0.5733121160164103   F   F   F
  0.1760565417206053  0.5558733960453495  0.5274894555519936   F   F   F
  0.1528366745151146  0.8047856847783237  0.5132875909207399   F   F   F
  0.0866836002345846  0.5141021221749370  0.6683217024626965   T   T   T
  0.1691791737848160  0.8746152590714547  0.6527160257786823   T   T   T
  0.2901883380358518  0.5218326616850265  0.5962943288726561   T   T   T
  0.1970788625512041  0.6568342637425802  0.6111315475403072   T   T   T
  0.3784920751941199  0.8100310567838053  0.6476967515707396   T   T   T
  0.3981688594160164  0.5618967885411772  0.6619464928411187   T   T   T
  0.4919938515174985  0.7240834222306277  0.6158598576693044   T   T   T
  0.4699868958724560  0.9756463960135283  0.6034701849352968   T   T   T
  0.3947491552546153  0.6837402994642137  0.7568332920727470   T   T   T
  0.4879137241135162  0.5425307543628755  0.7447855625185024   T   T   T
  0.1072218658534409  0.6886558911794862  0.6898017262016483   T   T   T
  0.0175924923438433  0.8351095274513145  0.7023173598841460   T   T   T
  0.2005986751327978  0.9792784157773026  0.7372710934990206   T   T   T
  0.2272539381314253  0.7505106827804412  0.7526375929094379   T   T   T
  0.3098850356561507  0.8911558365736827  0.7011481439651189   T   T   T
  0.2901978282795443  0.6483565449903990  0.6920545741314944   T   T   T
  0.6332582265626669  0.0059689038117909  0.4018946551303202   F   F   F
  0.7181988787877600  0.3661521172833773  0.3825003874881503   F   F   F
  0.8442342672352794  0.0153678283195759  0.3310424656331463   F   F   F
  0.7448769086493598  0.1532202571934320  0.3416956173386723   F   F   F
  0.9183450511797773  0.3018822266376802  0.3812778210674068   F   F   F
  0.9479630891185806  0.0541491356276893  0.3979564111383311   F   F   F
  0.5314071462063694  0.2142568009586014  0.3475222399669775   F   F   F
  0.5226551989466728  0.4641564239069496  0.3395728532397797   F   F   F
  0.9439043559933253  0.1765955828555335  0.4903745631379621   F   F   F
  0.5376710753307208  0.0432766736795003  0.4766665390927969   F   F   F
  0.6526998132164152  0.1823197248313164  0.4187291303502150   F   F   F
  0.5609778626800761  0.3186209200641628  0.4320697212870783   F   F   F
  0.7410437716299114  0.4716434307777320  0.4708552709769123   F   F   F
  0.7643985499594521  0.2237504121632909  0.4830709797220933   F   F   F
  0.8563347177442537  0.3876955036889598  0.4380853724283114   F   F   F
  0.8354974923431868  0.1352524710577967  0.4250661838045247   F   F   F
  0.7604301099607511  0.3429483656654639  0.5797765521564813   F   F   F
  0.8553411594725162  0.2126448018977953  0.5638597850510294   F   F   F
  0.9741103145572438  0.3547873036290881  0.5067627900516811   F   F   F
  0.8790288096649093  0.4850060784869754  0.5227594134782905   F   F   F
  0.5583022340726487  0.1417510576146626  0.5591551179124750   F   F   F
  0.5814467987013927  0.3927345269682263  0.5733121160164103   F   F   F
  0.6760565422169620  0.0558733964144196  0.5274894555519936   F   F   F
  0.6528366743269487  0.3047856851473938  0.5132875909207399   F   F   F
  0.5811877667330383  0.0126980315071858  0.6682337523412272   T   T   T
  0.6687548163856045  0.3719723124721743  0.6527606138969961   T   T   T
  0.7881893825809869  0.0216332980520019  0.5969758854544597   T   T   T
  0.6966562732267393  0.1567106938788397  0.6112137190310286   T   T   T
  0.8807195419359933  0.3128619549462514  0.6475559180547817   T   T   T
  0.8981669344355875  0.0599461192944847  0.6618001623739699   T   T   T
  0.9928951056560857  0.2248689647109312  0.6165303535067870   T   T   T
  0.9724770429678991  0.4767055344963979  0.6039303087078716   T   T   T
  0.8987524510336484  0.1754659545761488  0.7563827842021658   T   T   T
  0.9887691207186547  0.0364700490415489  0.7408737564241592   T   T   T
  0.5985587072473472  0.1859031588688196  0.6894429330735750   T   T   T
  0.5140436499926000  0.3314818240306632  0.7021223603517746   T   T   T
  0.6872222538847240  0.4763674362607584  0.7346285390236611   T   T   T
  0.7075564421224205  0.2357351169736458  0.7528968071114277   T   T   T
  0.8075278461937010  0.3910035196081103  0.7042752153068296   T   T   T
  0.7887602153780967  0.1482718639945142  0.6916735974605298   T   T   T
  0.6332582267508329  0.5059689034427208  0.4018946551303202   F   F   F
  0.7181988782913962  0.8661521169143072  0.3825003874881503   F   F   F
  0.8442342677316361  0.5153678286886461  0.3310424656331463   F   F   F
  0.7448769088375258  0.6532202568243619  0.3416956173386723   F   F   F
  0.9183450516761411  0.8018822270067503  0.3812778210674068   F   F   F
  0.9479630893067394  0.5541491352586192  0.3979564111383311   F   F   F
  0.5314071467027262  0.7142568013276644  0.3475222399669775   F   F   F
  0.5226551984503160  0.9641564235378794  0.3395728532397797   F   F   F
  0.9439043561814913  0.6765955824864633  0.4903745631379621   F   F   F
  0.5376710748343640  0.5432766733104302  0.4766665390927969   F   F   F
  0.6526998137127720  0.6823197252003865  0.4187291303502150   F   F   F
  0.5609778628682420  0.8186209196950927  0.4320697212870783   F   F   F
  0.7410437718180773  0.9716434304086619  0.4708552709769123   F   F   F
  0.7643985494630883  0.7237504117942208  0.4830709797220933   F   F   F
  0.8563347182406105  0.8876955040580299  0.4380853724283114   F   F   F
  0.8354974925313456  0.6352524706887266  0.4250661838045247   F   F   F
  0.7604301101489170  0.8429483652963938  0.5797765521564813   F   F   F
  0.8553411589761595  0.7126448015287252  0.5638597850510294   F   F   F
  0.9741103150536077  0.8547873039981582  0.5067627900516811   F   F   F
  0.8790288101612731  0.9850060788560455  0.5227594134782905   F   F   F
  0.5583022335762848  0.6417510572455924  0.5591551179124750   F   F   F
  0.5814467982050360  0.8927345265991562  0.5733121160164103   F   F   F
  0.6760565417206053  0.5558733960453495  0.5274894555519936   F   F   F
  0.6528366745151146  0.8047856847783237  0.5132875909207399   F   F   F
  0.5810822811311133  0.5140050062575197  0.6662873767361190   T   T   T
  0.6705631948779972  0.8759924701988797  0.6539356383586521   T   T   T
  0.7888222461483981  0.5217203007840573  0.5971619516363338   T   T   T
  0.6981819896066109  0.6560196857311135  0.6109640829730771   T   T   T
  0.8776581358874715  0.8102347770520926  0.6476634712515121   T   T   T
  0.8990268943586427  0.5598586377715660  0.6625416443824574   T   T   T
  0.9929395189211273  0.7241733135464312  0.6171682692590301   T   T   T
  0.9696622192001474  0.9746780984532444  0.6028957886631976   T   T   T
  0.9172133060505516  0.6838372316422215  0.7565754790748267   T   T   T
  0.9873962241792079  0.5275658696188834  0.7402820860593149   T   T   T
  0.6078421309367339  0.6912902929986745  0.6865646079905940   T   T   T
  0.5142300097621592  0.8297022769067998  0.7021715723314380   T   T   T
  0.7029514561752958  0.9784915458668950  0.7343034643845424   T   T   T
  0.7143185183626715  0.7183602639290344  0.7534360880467038   T   T   T
  0.8092078115768587  0.8861069467981644  0.7058388778562724   T   T   T
  0.7945694182720506  0.6467872991111420  0.6947626275770163   T   T   T
  0.6378454516591809  0.0708581061632273  0.7905011573967820   T   T   T
  0.1488608066584508  0.5838461057081165  0.7875780520023921   T   T   T
  0.3290557182138600  0.0745359105968912  0.8199147080788416   T   T   T
  0.5850526465662139  0.7905063055939742  0.7753977044292325   T   T   T
  0.9074212653276336  0.3558439781307932  0.7778249287959348   T   T   T
  0.3818723316306437  0.3458802858717747  0.7801148680991506   T   T   T
  0.8328215568070874  0.5022099445799292  0.7870029874039670   T   T   T
  0.8976521148984433  0.8460257953242775  0.7784523439189130   T   T   T
  0.7120132368729465  0.2330677362911994  0.7829301218853292   T   T   T
  0.2189513155599083  0.7259094752327593  0.7810810576983100   T   T   T
  0.3676660727496702  0.1279092307240065  0.8007489636094678   T   T   T
  0.4592441255239045  0.7132310751019337  0.7721478159542445   T   T   T
  0.9709861807970286  0.4869746928967875  0.7656684139829379   T   T   T
  0.2159584079352282  0.2395396013408454  0.7828360884848675   T   T   T
  0.9250958252332900  0.6860478899921557  0.7863516872113543   T   T   T
  0.7122708313281069  0.7309506440649293  0.7828521942593312   T   T   T
 
  0.00000000E+00  0.00000000E+00  0.00000000E+00
  0.00000000E+00  0.00000000E+00  0.00000000E+00
  0.00000000E+00  0.00000000E+00  0.00000000E+00
  0.00000000E+00  0.00000000E+00  0.00000000E+00
  0.00000000E+00  0.00000000E+00  0.00000000E+00
  0.00000000E+00  0.00000000E+00  0.00000000E+00
  0.00000000E+00  0.00000000E+00  0.00000000E+00
  0.00000000E+00  0.00000000E+00  0.00000000E+00
  0.00000000E+00  0.00000000E+00  0.00000000E+00
  0.00000000E+00  0.00000000E+00  0.00000000E+00
  0.00000000E+00  0.00000000E+00  0.00000000E+00
  0.00000000E+00  0.00000000E+00  0.00000000E+00
  0.00000000E+00  0.00000000E+00  0.00000000E+00
  0.00000000E+00  0.00000000E+00  0.00000000E+00
  0.00000000E+00  0.00000000E+00  0.00000000E+00
  0.00000000E+00  0.00000000E+00  0.00000000E+00
  0.00000000E+00  0.00000000E+00  0.00000000E+00
  0.00000000E+00  0.00000000E+00  0.00000000E+00
  0.00000000E+00  0.00000000E+00  0.00000000E+00
  0.00000000E+00  0.00000000E+00  0.00000000E+00
  0.00000000E+00  0.00000000E+00  0.00000000E+00
  0.00000000E+00  0.00000000E+00  0.00000000E+00
  0.00000000E+00  0.00000000E+00  0.00000000E+00
  0.00000000E+00  0.00000000E+00  0.00000000E+00
  0.00000000E+00  0.00000000E+00  0.00000000E+00
  0.00000000E+00  0.00000000E+00  0.00000000E+00
  0.00000000E+00  0.00000000E+00  0.00000000E+00
  0.00000000E+00  0.00000000E+00  0.00000000E+00
  0.00000000E+00  0.00000000E+00  0.00000000E+00
  0.00000000E+00  0.00000000E+00  0.00000000E+00
  0.00000000E+00  0.00000000E+00  0.00000000E+00
  0.00000000E+00  0.00000000E+00  0.00000000E+00
  0.00000000E+00  0.00000000E+00  0.00000000E+00
  0.00000000E+00  0.00000000E+00  0.00000000E+00
  0.00000000E+00  0.00000000E+00  0.00000000E+00
  0.00000000E+00  0.00000000E+00  0.00000000E+00
  0.00000000E+00  0.00000000E+00  0.00000000E+00
  0.00000000E+00  0.00000000E+00  0.00000000E+00
  0.00000000E+00  0.00000000E+00  0.00000000E+00
  0.00000000E+00  0.00000000E+00  0.00000000E+00
  0.00000000E+00  0.00000000E+00  0.00000000E+00
  0.00000000E+00  0.00000000E+00  0.00000000E+00
  0.00000000E+00  0.00000000E+00  0.00000000E+00
  0.00000000E+00  0.00000000E+00  0.00000000E+00
  0.00000000E+00  0.00000000E+00  0.00000000E+00
  0.00000000E+00  0.00000000E+00  0.00000000E+00
  0.00000000E+00  0.00000000E+00  0.00000000E+00
  0.00000000E+00  0.00000000E+00  0.00000000E+00
  0.00000000E+00  0.00000000E+00  0.00000000E+00
  0.00000000E+00  0.00000000E+00  0.00000000E+00
  0.00000000E+00  0.00000000E+00  0.00000000E+00
  0.00000000E+00  0.00000000E+00  0.00000000E+00
  0.00000000E+00  0.00000000E+00  0.00000000E+00
  0.00000000E+00  0.00000000E+00  0.00000000E+00
  0.00000000E+00  0.00000000E+00  0.00000000E+00
  0.00000000E+00  0.00000000E+00  0.00000000E+00
  0.00000000E+00  0.00000000E+00  0.00000000E+00
  0.00000000E+00  0.00000000E+00  0.00000000E+00
  0.00000000E+00  0.00000000E+00  0.00000000E+00
  0.00000000E+00  0.00000000E+00  0.00000000E+00
  0.00000000E+00  0.00000000E+00  0.00000000E+00
  0.00000000E+00  0.00000000E+00  0.00000000E+00
  0.00000000E+00  0.00000000E+00  0.00000000E+00
  0.00000000E+00  0.00000000E+00  0.00000000E+00
  0.00000000E+00  0.00000000E+00  0.00000000E+00
  0.00000000E+00  0.00000000E+00  0.00000000E+00
  0.00000000E+00  0.00000000E+00  0.00000000E+00
  0.00000000E+00  0.00000000E+00  0.00000000E+00
  0.00000000E+00  0.00000000E+00  0.00000000E+00
  0.00000000E+00  0.00000000E+00  0.00000000E+00
  0.00000000E+00  0.00000000E+00  0.00000000E+00
  0.00000000E+00  0.00000000E+00  0.00000000E+00
  0.00000000E+00  0.00000000E+00  0.00000000E+00
  0.00000000E+00  0.00000000E+00  0.00000000E+00
  0.00000000E+00  0.00000000E+00  0.00000000E+00
  0.00000000E+00  0.00000000E+00  0.00000000E+00
  0.00000000E+00  0.00000000E+00  0.00000000E+00
  0.00000000E+00  0.00000000E+00  0.00000000E+00
  0.00000000E+00  0.00000000E+00  0.00000000E+00
  0.00000000E+00  0.00000000E+00  0.00000000E+00
  0.00000000E+00  0.00000000E+00  0.00000000E+00
  0.00000000E+00  0.00000000E+00  0.00000000E+00
  0.00000000E+00  0.00000000E+00  0.00000000E+00
  0.00000000E+00  0.00000000E+00  0.00000000E+00
  0.00000000E+00  0.00000000E+00  0.00000000E+00
  0.00000000E+00  0.00000000E+00  0.00000000E+00
  0.00000000E+00  0.00000000E+00  0.00000000E+00
  0.00000000E+00  0.00000000E+00  0.00000000E+00
  0.00000000E+00  0.00000000E+00  0.00000000E+00
  0.00000000E+00  0.00000000E+00  0.00000000E+00
  0.00000000E+00  0.00000000E+00  0.00000000E+00
  0.00000000E+00  0.00000000E+00  0.00000000E+00
  0.00000000E+00  0.00000000E+00  0.00000000E+00
  0.00000000E+00  0.00000000E+00  0.00000000E+00
  0.00000000E+00  0.00000000E+00  0.00000000E+00
  0.00000000E+00  0.00000000E+00  0.00000000E+00
  0.00000000E+00  0.00000000E+00  0.00000000E+00
  0.00000000E+00  0.00000000E+00  0.00000000E+00
  0.00000000E+00  0.00000000E+00  0.00000000E+00
  0.00000000E+00  0.00000000E+00  0.00000000E+00
  0.00000000E+00  0.00000000E+00  0.00000000E+00
  0.00000000E+00  0.00000000E+00  0.00000000E+00
  0.00000000E+00  0.00000000E+00  0.00000000E+00
  0.00000000E+00  0.00000000E+00  0.00000000E+00
  0.00000000E+00  0.00000000E+00  0.00000000E+00
  0.00000000E+00  0.00000000E+00  0.00000000E+00
  0.00000000E+00  0.00000000E+00  0.00000000E+00
  0.00000000E+00  0.00000000E+00  0.00000000E+00
  0.00000000E+00  0.00000000E+00  0.00000000E+00
  0.00000000E+00  0.00000000E+00  0.00000000E+00
  0.00000000E+00  0.00000000E+00  0.00000000E+00
  0.00000000E+00  0.00000000E+00  0.00000000E+00
  0.00000000E+00  0.00000000E+00  0.00000000E+00
  0.00000000E+00  0.00000000E+00  0.00000000E+00
  0.00000000E+00  0.00000000E+00  0.00000000E+00
  0.00000000E+00  0.00000000E+00  0.00000000E+00
  0.00000000E+00  0.00000000E+00  0.00000000E+00
  0.00000000E+00  0.00000000E+00  0.00000000E+00
  0.00000000E+00  0.00000000E+00  0.00000000E+00
  0.00000000E+00  0.00000000E+00  0.00000000E+00
  0.00000000E+00  0.00000000E+00  0.00000000E+00
  0.00000000E+00  0.00000000E+00  0.00000000E+00
  0.00000000E+00  0.00000000E+00  0.00000000E+00
  0.00000000E+00  0.00000000E+00  0.00000000E+00
  0.00000000E+00  0.00000000E+00  0.00000000E+00
  0.00000000E+00  0.00000000E+00  0.00000000E+00
  0.00000000E+00  0.00000000E+00  0.00000000E+00
  0.00000000E+00  0.00000000E+00  0.00000000E+00
  0.00000000E+00  0.00000000E+00  0.00000000E+00
  0.00000000E+00  0.00000000E+00  0.00000000E+00
  0.00000000E+00  0.00000000E+00  0.00000000E+00
  0.00000000E+00  0.00000000E+00  0.00000000E+00
  0.00000000E+00  0.00000000E+00  0.00000000E+00
  0.00000000E+00  0.00000000E+00  0.00000000E+00
  0.00000000E+00  0.00000000E+00  0.00000000E+00
  0.00000000E+00  0.00000000E+00  0.00000000E+00
  0.00000000E+00  0.00000000E+00  0.00000000E+00
  0.00000000E+00  0.00000000E+00  0.00000000E+00
  0.00000000E+00  0.00000000E+00  0.00000000E+00
  0.00000000E+00  0.00000000E+00  0.00000000E+00
  0.00000000E+00  0.00000000E+00  0.00000000E+00
  0.00000000E+00  0.00000000E+00  0.00000000E+00
  0.00000000E+00  0.00000000E+00  0.00000000E+00
  0.00000000E+00  0.00000000E+00  0.00000000E+00
  0.00000000E+00  0.00000000E+00  0.00000000E+00
  0.00000000E+00  0.00000000E+00  0.00000000E+00
  0.00000000E+00  0.00000000E+00  0.00000000E+00
  0.00000000E+00  0.00000000E+00  0.00000000E+00
  0.00000000E+00  0.00000000E+00  0.00000000E+00
  0.00000000E+00  0.00000000E+00  0.00000000E+00
  0.00000000E+00  0.00000000E+00  0.00000000E+00
  0.00000000E+00  0.00000000E+00  0.00000000E+00
  0.00000000E+00  0.00000000E+00  0.00000000E+00
  0.00000000E+00  0.00000000E+00  0.00000000E+00
  0.00000000E+00  0.00000000E+00  0.00000000E+00
  0.00000000E+00  0.00000000E+00  0.00000000E+00
  0.00000000E+00  0.00000000E+00  0.00000000E+00
  0.00000000E+00  0.00000000E+00  0.00000000E+00
  0.00000000E+00  0.00000000E+00  0.00000000E+00
  0.00000000E+00  0.00000000E+00  0.00000000E+00
  0.00000000E+00  0.00000000E+00  0.00000000E+00
  0.00000000E+00  0.00000000E+00  0.00000000E+00
  0.00000000E+00  0.00000000E+00  0.00000000E+00
  0.00000000E+00  0.00000000E+00  0.00000000E+00
  0.00000000E+00  0.00000000E+00  0.00000000E+00
  0.00000000E+00  0.00000000E+00  0.00000000E+00
  0.00000000E+00  0.00000000E+00  0.00000000E+00
  0.00000000E+00  0.00000000E+00  0.00000000E+00
  0.00000000E+00  0.00000000E+00  0.00000000E+00
  0.00000000E+00  0.00000000E+00  0.00000000E+00
  0.00000000E+00  0.00000000E+00  0.00000000E+00
  0.00000000E+00  0.00000000E+00  0.00000000E+00
  0.00000000E+00  0.00000000E+00  0.00000000E+00
  0.00000000E+00  0.00000000E+00  0.00000000E+00
  0.00000000E+00  0.00000000E+00  0.00000000E+00
  0.00000000E+00  0.00000000E+00  0.00000000E+00
  0.00000000E+00  0.00000000E+00  0.00000000E+00
  0.00000000E+00  0.00000000E+00  0.00000000E+00
  0.00000000E+00  0.00000000E+00  0.00000000E+00
  0.00000000E+00  0.00000000E+00  0.00000000E+00
  0.00000000E+00  0.00000000E+00  0.00000000E+00
  0.00000000E+00  0.00000000E+00  0.00000000E+00
  0.00000000E+00  0.00000000E+00  0.00000000E+00
  0.00000000E+00  0.00000000E+00  0.00000000E+00
  0.00000000E+00  0.00000000E+00  0.00000000E+00
  0.00000000E+00  0.00000000E+00  0.00000000E+00
  0.00000000E+00  0.00000000E+00  0.00000000E+00
  0.00000000E+00  0.00000000E+00  0.00000000E+00
  0.00000000E+00  0.00000000E+00  0.00000000E+00
  0.00000000E+00  0.00000000E+00  0.00000000E+00
  0.00000000E+00  0.00000000E+00  0.00000000E+00
  0.00000000E+00  0.00000000E+00  0.00000000E+00
  0.00000000E+00  0.00000000E+00  0.00000000E+00
  0.00000000E+00  0.00000000E+00  0.00000000E+00
  0.00000000E+00  0.00000000E+00  0.00000000E+00
  0.00000000E+00  0.00000000E+00  0.00000000E+00
  0.00000000E+00  0.00000000E+00  0.00000000E+00
  0.00000000E+00  0.00000000E+00  0.00000000E+00
  0.00000000E+00  0.00000000E+00  0.00000000E+00
  0.00000000E+00  0.00000000E+00  0.00000000E+00
  0.00000000E+00  0.00000000E+00  0.00000000E+00
  0.00000000E+00  0.00000000E+00  0.00000000E+00
  0.00000000E+00  0.00000000E+00  0.00000000E+00
  0.00000000E+00  0.00000000E+00  0.00000000E+00
  0.00000000E+00  0.00000000E+00  0.00000000E+00
  0.00000000E+00  0.00000000E+00  0.00000000E+00
  0.00000000E+00  0.00000000E+00  0.00000000E+00
  0.00000000E+00  0.00000000E+00  0.00000000E+00
  0.00000000E+00  0.00000000E+00  0.00000000E+00
  0.00000000E+00  0.00000000E+00  0.00000000E+00
  0.00000000E+00  0.00000000E+00  0.00000000E+00
  0.00000000E+00  0.00000000E+00  0.00000000E+00
  0.00000000E+00  0.00000000E+00  0.00000000E+00
  0.00000000E+00  0.00000000E+00  0.00000000E+00
  0.00000000E+00  0.00000000E+00  0.00000000E+00
  0.00000000E+00  0.00000000E+00  0.00000000E+00
  0.00000000E+00  0.00000000E+00  0.00000000E+00
  0.00000000E+00  0.00000000E+00  0.00000000E+00
  0.00000000E+00  0.00000000E+00  0.00000000E+00
  0.00000000E+00  0.00000000E+00  0.00000000E+00
  0.00000000E+00  0.00000000E+00  0.00000000E+00
  0.00000000E+00  0.00000000E+00  0.00000000E+00
  0.00000000E+00  0.00000000E+00  0.00000000E+00