Zr  O  F  H                             
   1.00000000000000     
    14.6087084399999991    0.0000000000000000    0.0000000000000000
    -6.0995943700000002   13.5475736500000004    0.0000000000000000
     0.0000000000000000    0.0000000000000000   32.4658957799999968
   Zr   O    F    H 
    80   160     3     3
Selective dynamics
Direct
  0.1072999602879108  0.1107509020259130  0.3626799193464265   F   F   F
  0.3752027684508334  0.1411823791782822  0.3611695660103535   F   F   F
  0.3729099757713499  0.4229177172991427  0.3686418726315495   F   F   F
  0.0769991309152616  0.3675992767162413  0.3710084865553043   F   F   F
  0.4150241426110028  0.2799622327943538  0.4516720934905933   F   F   F
  0.1984057059501083  0.3151122314806543  0.4480415241448767   F   F   F
  0.1804103960495240  0.0775491807715696  0.4568444542699766   F   F   F
  0.4012433377734936  0.0448202538467086  0.4606724581803618   F   F   F
  0.2344424391150781  0.4480134719179034  0.5408472105925028   F   F   F
  0.0161400524639745  0.4843520754729411  0.5390958181964578   F   F   F
  0.4998527713696888  0.2495595232287187  0.5457642774149249   F   F   F
  0.2182112126040039  0.2133152672692802  0.5475478657807713   F   F   F
  0.0537879621601413  0.1200448629490512  0.6295067369359162   T   T   T
  0.3332160315951561  0.1527990078736701  0.6256100823377325   T   T   T
  0.3192439533422969  0.4176717878210165  0.6348430849403495   T   T   T
  0.0368502749952223  0.3837842015030350  0.6388476333017070   T   T   T
  0.3613924925088540  0.2744758623892298  0.7169069666998702   T   T   T
  0.1589281482932491  0.3289575047641988  0.7149872675271181   T   T   T
  0.1276250537476657  0.0866214950883767  0.7234282399285303   T   T   T
  0.3606989676034661  0.0543945917446264  0.7244526677452132   T   T   T
  0.1072999600997520  0.6107509023949831  0.3626799193464265   F   F   F
  0.3752027682626675  0.6411823795473524  0.3611695660103535   F   F   F
  0.3729099755831840  0.9229177176682128  0.3686418726315495   F   F   F
  0.0769991314116254  0.8675992770853114  0.3710084865553043   F   F   F
  0.4150241424228369  0.7799622331634239  0.4516720934905933   F   F   F
  0.1984057057619495  0.8151122318497244  0.4480415241448767   F   F   F
  0.1804103962376828  0.5775491804024995  0.4568444542699766   F   F   F
  0.4012433379616525  0.5448202534776385  0.4606724581803618   F   F   F
  0.2344424386187143  0.9480134715488333  0.5408472105925028   F   F   F
  0.0161400522758157  0.9843520758420112  0.5390958181964578   F   F   F
  0.4998527715578547  0.7495595228596557  0.5457642774149249   F   F   F
  0.2182112127921698  0.7133152669002101  0.5475478657807713   F   F   F
  0.0550068339311848  0.6195610128546897  0.6330651776150062   T   T   T
  0.3318534214267694  0.6529840650987294  0.6262672489202770   T   T   T
  0.3190110697134829  0.9171254183240639  0.6345573766817113   T   T   T
  0.0338430084481728  0.8820030101997929  0.6376729458534938   T   T   T
  0.3703448465727934  0.7815497643877818  0.7171416757735297   T   T   T
  0.1540015860031238  0.8347054277283528  0.7143095612651168   T   T   T
  0.1357019037417179  0.5836675046237991  0.7282639236436776   T   T   T
  0.3608434078531189  0.5585601344529055  0.7254026152701698   T   T   T
  0.6072999602879108  0.1107509020259130  0.3626799193464265   F   F   F
  0.8752027684508334  0.1411823791782822  0.3611695660103535   F   F   F
  0.8729099757713499  0.4229177172991427  0.3686418726315495   F   F   F
  0.5769991309152616  0.3675992767162413  0.3710084865553043   F   F   F
  0.9150241426110028  0.2799622327943538  0.4516720934905933   F   F   F
  0.6984057059501083  0.3151122314806543  0.4480415241448767   F   F   F
  0.6804103960495240  0.0775491807715696  0.4568444542699766   F   F   F
  0.9012433377734936  0.0448202538467086  0.4606724581803618   F   F   F
  0.7344424391150781  0.4480134719179034  0.5408472105925028   F   F   F
  0.5161400524639745  0.4843520754729411  0.5390958181964578   F   F   F
  0.9998527713696888  0.2495595232287187  0.5457642774149249   F   F   F
  0.7182112126040039  0.2133152672692802  0.5475478657807713   F   F   F
  0.5533984915650901  0.1189200340867696  0.6285183812096000   T   T   T
  0.8335971342863635  0.1535785672697783  0.6259976453038696   T   T   T
  0.8200894632490821  0.4197835686325841  0.6357772301432576   T   T   T
  0.5356073100653950  0.3824871145137745  0.6382630038745588   T   T   T
  0.8623374154979693  0.2759973067292359  0.7182948186646828   T   T   T
  0.6522013083393160  0.3199319101659213  0.7139264866183980   T   T   T
  0.6280150220717264  0.0830360290674250  0.7234896380325048   T   T   T
  0.8617008706433231  0.0576336599697667  0.7252633693388689   T   T   T
  0.6072999600997520  0.6107509023949831  0.3626799193464265   F   F   F
  0.8752027682626675  0.6411823795473524  0.3611695660103535   F   F   F
  0.8729099755831840  0.9229177176682128  0.3686418726315495   F   F   F
  0.5769991314116254  0.8675992770853114  0.3710084865553043   F   F   F
  0.9150241424228369  0.7799622331634239  0.4516720934905933   F   F   F
  0.6984057057619495  0.8151122318497244  0.4480415241448767   F   F   F
  0.6804103962376828  0.5775491804024995  0.4568444542699766   F   F   F
  0.9012433379616525  0.5448202534776385  0.4606724581803618   F   F   F
  0.7344424386187143  0.9480134715488333  0.5408472105925028   F   F   F
  0.5161400522758157  0.9843520758420112  0.5390958181964578   F   F   F
  0.9998527715578547  0.7495595228596557  0.5457642774149249   F   F   F
  0.7182112127921698  0.7133152669002101  0.5475478657807713   F   F   F
  0.5534791013923505  0.6202491244710364  0.6291320857937434   T   T   T
  0.8331057358748960  0.6512911285655588  0.6272993674714212   T   T   T
  0.8195766303841756  0.9177679871028483  0.6348214451951716   T   T   T
  0.5377027846957073  0.8830571244728020  0.6375551134635425   T   T   T
  0.8594429930133667  0.7708858583312310  0.7177458724874558   T   T   T
  0.6603412763869901  0.8330288425346013  0.7156371385774534   T   T   T
  0.6218585618066976  0.5918051980219253  0.7231210640428306   T   T   T
  0.8676728545915843  0.5516188667047276  0.7332475220515995   T   T   T
  0.1332582265626669  0.0059689038117909  0.4018946551303202   F   F   F
  0.2181988781032373  0.3661521172833773  0.3825003874881503   F   F   F
  0.3442342672352794  0.0153678283195759  0.3310424656331463   F   F   F
  0.2448769086493598  0.1532202571934320  0.3416956173386723   F   F   F
  0.4183450511797773  0.3018822266376802  0.3812778210674068   F   F   F
  0.4479630891185806  0.0541491356276893  0.3979564111383311   F   F   F
  0.0314071462063694  0.2142568009586014  0.3475222399669775   F   F   F
  0.0226551989466728  0.4641564239069496  0.3395728532397797   F   F   F
  0.4439043559933253  0.1765955828555335  0.4903745631379621   F   F   F
  0.0376710753307208  0.0432766736795003  0.4766665390927969   F   F   F
  0.1526998132164152  0.1823197248313164  0.4187291303502150   F   F   F
  0.0609778626800761  0.3186209200641628  0.4320697212870783   F   F   F
  0.2410437716299114  0.4716434307777320  0.4708552709769123   F   F   F
  0.2643985499594521  0.2237504121632909  0.4830709797220933   F   F   F
  0.3563347177442537  0.3876955036889598  0.4380853724283114   F   F   F
  0.3354974923431868  0.1352524710577967  0.4250661838045247   F   F   F
  0.2604301099607511  0.3429483656654639  0.5797765521564813   F   F   F
  0.3553411594725162  0.2126448018977953  0.5638597850510294   F   F   F
  0.4741103145572438  0.3547873036290881  0.5067627900516811   F   F   F
  0.3790288096649093  0.4850060784869754  0.5227594134782905   F   F   F
  0.0583022340726487  0.1417510576146626  0.5591551179124750   F   F   F
  0.0814467987013927  0.3927345269682263  0.5733121160164103   F   F   F
  0.1760565422169620  0.0558733964144196  0.5274894555519936   F   F   F
  0.1528366743269487  0.3047856851473938  0.5132875909207399   F   F   F
  0.0816964523046757  0.0150506464847415  0.6673591002367759   T   T   T
  0.1733498101262123  0.3756924370850974  0.6538281254609832   T   T   T
  0.2905421665918207  0.0208346113457127  0.5960725370903763   T   T   T
  0.1967426096287723  0.1541891382066422  0.6097865567277900   T   T   T
  0.3774655643628103  0.3088149765282945  0.6474134959054479   T   T   T
  0.3995394096031077  0.0619452617041539  0.6610120531091200   T   T   T
  0.4933570996428147  0.2254921628290975  0.6153559857672214   T   T   T
  0.4697728203717701  0.4745803600959210  0.6032963798301432   T   T   T
  0.3925392352986903  0.1811413572787398  0.7555274685549130   T   T   T
  0.4885081112774918  0.0390069257892823  0.7432599807976947   T   T   T
  0.1009322978785662  0.1900441290425945  0.6845101949988857   T   T   T
  0.0167448963944804  0.3298985659613079  0.7042194525726349   T   T   T
  0.2077876410556287  0.4784893257728063  0.7359435553986183   T   T   T
  0.2132743051368641  0.2324965532096605  0.7464023362940629   T   T   T
  0.3190221805517945  0.3941390718818812  0.7041638441817695   T   T   T
  0.2875706008204245  0.1427616723050061  0.6884694651330506   T   T   T
  0.1332582267508329  0.5059689034427208  0.4018946551303202   F   F   F
  0.2181988782913962  0.8661521169143072  0.3825003874881503   F   F   F
  0.3442342677316361  0.5153678286886461  0.3310424656331463   F   F   F
  0.2448769088375258  0.6532202568243619  0.3416956173386723   F   F   F
  0.4183450516761411  0.8018822270067503  0.3812778210674068   F   F   F
  0.4479630886222168  0.5541491352586192  0.3979564111383311   F   F   F
  0.0314071467027262  0.7142568013276644  0.3475222399669775   F   F   F
  0.0226551984503160  0.9641564235378794  0.3395728532397797   F   F   F
  0.4439043561814913  0.6765955824864633  0.4903745631379621   F   F   F
  0.0376710748343640  0.5432766733104302  0.4766665390927969   F   F   F
  0.1526998137127720  0.6823197252003865  0.4187291303502150   F   F   F
  0.0609778628682420  0.8186209196950927  0.4320697212870783   F   F   F
  0.2410437718180773  0.9716434304086619  0.4708552709769123   F   F   F
  0.2643985494630883  0.7237504117942208  0.4830709797220933   F   F   F
  0.3563347182406105  0.8876955040580299  0.4380853724283114   F   F   F
  0.3354974925313456  0.6352524706887266  0.4250661838045247   F   F   F
  0.2604301101489170  0.8429483652963938  0.5797765521564813   F   F   F
  0.3553411589761595  0.7126448015287252  0.5638597850510294   F   F   F
  0.4741103143690779  0.8547873039981582  0.5067627900516811   F   F   F
  0.3790288101612731  0.9850060788560455  0.5227594134782905   F   F   F
  0.0583022335762848  0.6417510572455924  0.5591551179124750   F   F   F
  0.0814467982050360  0.8927345265991562  0.5733121160164103   F   F   F
  0.1760565417206053  0.5558733960453495  0.5274894555519936   F   F   F
  0.1528366745151146  0.8047856847783237  0.5132875909207399   F   F   F
  0.0865041393402212  0.5144134852052176  0.6684570626403056   T   T   T
  0.1719046001851745  0.8794324420658848  0.6536846589766520   T   T   T
  0.2896209537415501  0.5213174798602226  0.5963582381143729   T   T   T
  0.1969231194768141  0.6564843024844174  0.6106015905916206   T   T   T
  0.3811170842492758  0.8112697009471016  0.6482319075382775   T   T   T
  0.3972375759095152  0.5631832594695092  0.6616248379690968   T   T   T
  0.4931372614492304  0.7258839535277332  0.6154684693373202   T   T   T
  0.4696614344871394  0.9737378374010813  0.6030351261722878   T   T   T
  0.3929439879129181  0.6864793865409786  0.7547147758654402   T   T   T
  0.4868290456036526  0.5451524384530446  0.7463739980373557   T   T   T
  0.1103617142424422  0.6935781968423921  0.6888449549359921   T   T   T
  0.0158896717903185  0.8338528986941681  0.7030878352516388   T   T   T
  0.2036422727811102  0.9842741111258089  0.7383482012059615   T   T   T
  0.2253887335552535  0.7537557598059608  0.7534478639673617   T   T   T
  0.3143637366991890  0.8952789952750937  0.7032566556760900   T   T   T
  0.2870074585472639  0.6484598745968031  0.6897433190502678   T   T   T
  0.6332582265626669  0.0059689038117909  0.4018946551303202   F   F   F
  0.7181988787877600  0.3661521172833773  0.3825003874881503   F   F   F
  0.8442342672352794  0.0153678283195759  0.3310424656331463   F   F   F
  0.7448769086493598  0.1532202571934320  0.3416956173386723   F   F   F
  0.9183450511797773  0.3018822266376802  0.3812778210674068   F   F   F
  0.9479630891185806  0.0541491356276893  0.3979564111383311   F   F   F
  0.5314071462063694  0.2142568009586014  0.3475222399669775   F   F   F
  0.5226551989466728  0.4641564239069496  0.3395728532397797   F   F   F
  0.9439043559933253  0.1765955828555335  0.4903745631379621   F   F   F
  0.5376710753307208  0.0432766736795003  0.4766665390927969   F   F   F
  0.6526998132164152  0.1823197248313164  0.4187291303502150   F   F   F
  0.5609778626800761  0.3186209200641628  0.4320697212870783   F   F   F
  0.7410437716299114  0.4716434307777320  0.4708552709769123   F   F   F
  0.7643985499594521  0.2237504121632909  0.4830709797220933   F   F   F
  0.8563347177442537  0.3876955036889598  0.4380853724283114   F   F   F
  0.8354974923431868  0.1352524710577967  0.4250661838045247   F   F   F
  0.7604301099607511  0.3429483656654639  0.5797765521564813   F   F   F
  0.8553411594725162  0.2126448018977953  0.5638597850510294   F   F   F
  0.9741103145572438  0.3547873036290881  0.5067627900516811   F   F   F
  0.8790288096649093  0.4850060784869754  0.5227594134782905   F   F   F
  0.5583022340726487  0.1417510576146626  0.5591551179124750   F   F   F
  0.5814467987013927  0.3927345269682263  0.5733121160164103   F   F   F
  0.6760565422169620  0.0558733964144196  0.5274894555519936   F   F   F
  0.6528366743269487  0.3047856851473938  0.5132875909207399   F   F   F
  0.5845834128671057  0.0157767896309433  0.6664527966049864   T   T   T
  0.6712591115445211  0.3769092166583002  0.6542534431693277   T   T   T
  0.7897236090169518  0.0210983556805058  0.5963787197930452   T   T   T
  0.6970083295802073  0.1553599878017917  0.6099059106521508   T   T   T
  0.8785422838584201  0.3112951211760472  0.6492318315650782   T   T   T
  0.8994073506875138  0.0625152871794721  0.6613793603831579   T   T   T
  0.9927618979555480  0.2254056910168325  0.6156127440786607   T   T   T
  0.9714765101439169  0.4752520947627422  0.6043038791352928   T   T   T
  0.8907904832507794  0.1827309569821116  0.7555029584168302   T   T   T
  0.9902512063474984  0.0448057658315332  0.7448766706392794   T   T   T
  0.5981814330325983  0.1879597252204742  0.6842887402594980   T   T   T
  0.5137632281579703  0.3270212412063834  0.7024990687031998   T   T   T
  0.6792604534135456  0.4781753393188720  0.7424531677769693   T   T   T
  0.7088302530435907  0.2278042512616581  0.7463034818210077   T   T   T
  0.8087706238704464  0.3930318588888945  0.7053249052197756   T   T   T
  0.7875788168962389  0.1442560038869050  0.6886857111370024   T   T   T
  0.6332582267508329  0.5059689034427208  0.4018946551303202   F   F   F
  0.7181988782913962  0.8661521169143072  0.3825003874881503   F   F   F
  0.8442342677316361  0.5153678286886461  0.3310424656331463   F   F   F
  0.7448769088375258  0.6532202568243619  0.3416956173386723   F   F   F
  0.9183450516761411  0.8018822270067503  0.3812778210674068   F   F   F
  0.9479630893067394  0.5541491352586192  0.3979564111383311   F   F   F
  0.5314071467027262  0.7142568013276644  0.3475222399669775   F   F   F
  0.5226551984503160  0.9641564235378794  0.3395728532397797   F   F   F
  0.9439043561814913  0.6765955824864633  0.4903745631379621   F   F   F
  0.5376710748343640  0.5432766733104302  0.4766665390927969   F   F   F
  0.6526998137127720  0.6823197252003865  0.4187291303502150   F   F   F
  0.5609778628682420  0.8186209196950927  0.4320697212870783   F   F   F
  0.7410437718180773  0.9716434304086619  0.4708552709769123   F   F   F
  0.7643985494630883  0.7237504117942208  0.4830709797220933   F   F   F
  0.8563347182406105  0.8876955040580299  0.4380853724283114   F   F   F
  0.8354974925313456  0.6352524706887266  0.4250661838045247   F   F   F
  0.7604301101489170  0.8429483652963938  0.5797765521564813   F   F   F
  0.8553411589761595  0.7126448015287252  0.5638597850510294   F   F   F
  0.9741103150536077  0.8547873039981582  0.5067627900516811   F   F   F
  0.8790288101612731  0.9850060788560455  0.5227594134782905   F   F   F
  0.5583022335762848  0.6417510572455924  0.5591551179124750   F   F   F
  0.5814467982050360  0.8927345265991562  0.5733121160164103   F   F   F
  0.6760565417206053  0.5558733960453495  0.5274894555519936   F   F   F
  0.6528366745151146  0.8047856847783237  0.5132875909207399   F   F   F
  0.5782088681221094  0.5149361000082582  0.6682823825892962   T   T   T
  0.6740980066725560  0.8783440985447529  0.6542574221173233   T   T   T
  0.7888675389435550  0.5207441483062879  0.5967388798911284   T   T   T
  0.6962092205424474  0.6543399475352979  0.6103897641649262   T   T   T
  0.8762704832021661  0.8081730279748797  0.6484014544511859   T   T   T
  0.8998668942347933  0.5617751866415208  0.6625821266145281   T   T   T
  0.9936181132449384  0.7253901597472223  0.6170048456298897   T   T   T
  0.9690940696144643  0.9733115648643316  0.6032968883718847   T   T   T
  0.8985511530908681  0.6866447046206008  0.7550495048363125   T   T   T
  0.9924458441100091  0.5356763654439436  0.7402621419236345   T   T   T
  0.5964889738328195  0.6931562524150751  0.6848392387526157   T   T   T
  0.5199800352446040  0.8370750876073313  0.7041452398358077   T   T   T
  0.7042893460689147  0.9836473332566152  0.7390105884383258   T   T   T
  0.7114896794882791  0.7352941815402639  0.7470885461256020   T   T   T
  0.8171563658174105  0.8962670193430511  0.7050620817686105   T   T   T
  0.7813802491667978  0.6403064828702874  0.6897080466999228   T   T   T
  0.1594057322829859  0.5915852933812638  0.7893619938457305   T   T   T
  0.4136477179133669  0.1451088624575697  0.8306738067083953   T   T   T
  0.8187308254283890  0.4794286250741188  0.7865682301457942   T   T   T
  0.2142834167615655  0.7225931526077957  0.7809887764804774   T   T   T
  0.4075681346360192  0.1650764296185418  0.8024855124246612   T   T   T
  0.6978246261761218  0.4749653797304276  0.7715360989725508   T   T   T
 
  0.00000000E+00  0.00000000E+00  0.00000000E+00
  0.00000000E+00  0.00000000E+00  0.00000000E+00
  0.00000000E+00  0.00000000E+00  0.00000000E+00
  0.00000000E+00  0.00000000E+00  0.00000000E+00
  0.00000000E+00  0.00000000E+00  0.00000000E+00
  0.00000000E+00  0.00000000E+00  0.00000000E+00
  0.00000000E+00  0.00000000E+00  0.00000000E+00
  0.00000000E+00  0.00000000E+00  0.00000000E+00
  0.00000000E+00  0.00000000E+00  0.00000000E+00
  0.00000000E+00  0.00000000E+00  0.00000000E+00
  0.00000000E+00  0.00000000E+00  0.00000000E+00
  0.00000000E+00  0.00000000E+00  0.00000000E+00
  0.00000000E+00  0.00000000E+00  0.00000000E+00
  0.00000000E+00  0.00000000E+00  0.00000000E+00
  0.00000000E+00  0.00000000E+00  0.00000000E+00
  0.00000000E+00  0.00000000E+00  0.00000000E+00
  0.00000000E+00  0.00000000E+00  0.00000000E+00
  0.00000000E+00  0.00000000E+00  0.00000000E+00
  0.00000000E+00  0.00000000E+00  0.00000000E+00
  0.00000000E+00  0.00000000E+00  0.00000000E+00
  0.00000000E+00  0.00000000E+00  0.00000000E+00
  0.00000000E+00  0.00000000E+00  0.00000000E+00
  0.00000000E+00  0.00000000E+00  0.00000000E+00
  0.00000000E+00  0.00000000E+00  0.00000000E+00
  0.00000000E+00  0.00000000E+00  0.00000000E+00
  0.00000000E+00  0.00000000E+00  0.00000000E+00
  0.00000000E+00  0.00000000E+00  0.00000000E+00
  0.00000000E+00  0.00000000E+00  0.00000000E+00
  0.00000000E+00  0.00000000E+00  0.00000000E+00
  0.00000000E+00  0.00000000E+00  0.00000000E+00
  0.00000000E+00  0.00000000E+00  0.00000000E+00
  0.00000000E+00  0.00000000E+00  0.00000000E+00
  0.00000000E+00  0.00000000E+00  0.00000000E+00
  0.00000000E+00  0.00000000E+00  0.00000000E+00
  0.00000000E+00  0.00000000E+00  0.00000000E+00
  0.00000000E+00  0.00000000E+00  0.00000000E+00
  0.00000000E+00  0.00000000E+00  0.00000000E+00
  0.00000000E+00  0.00000000E+00  0.00000000E+00
  0.00000000E+00  0.00000000E+00  0.00000000E+00
  0.00000000E+00  0.00000000E+00  0.00000000E+00
  0.00000000E+00  0.00000000E+00  0.00000000E+00
  0.00000000E+00  0.00000000E+00  0.00000000E+00
  0.00000000E+00  0.00000000E+00  0.00000000E+00
  0.00000000E+00  0.00000000E+00  0.00000000E+00
  0.00000000E+00  0.00000000E+00  0.00000000E+00
  0.00000000E+00  0.00000000E+00  0.00000000E+00
  0.00000000E+00  0.00000000E+00  0.00000000E+00
  0.00000000E+00  0.00000000E+00  0.00000000E+00
  0.00000000E+00  0.00000000E+00  0.00000000E+00
  0.00000000E+00  0.00000000E+00  0.00000000E+00
  0.00000000E+00  0.00000000E+00  0.00000000E+00
  0.00000000E+00  0.00000000E+00  0.00000000E+00
  0.00000000E+00  0.00000000E+00  0.00000000E+00
  0.00000000E+00  0.00000000E+00  0.00000000E+00
  0.00000000E+00  0.00000000E+00  0.00000000E+00
  0.00000000E+00  0.00000000E+00  0.00000000E+00
  0.00000000E+00  0.00000000E+00  0.00000000E+00
  0.00000000E+00  0.00000000E+00  0.00000000E+00
  0.00000000E+00  0.00000000E+00  0.00000000E+00
  0.00000000E+00  0.00000000E+00  0.00000000E+00
  0.00000000E+00  0.00000000E+00  0.00000000E+00
  0.00000000E+00  0.00000000E+00  0.00000000E+00
  0.00000000E+00  0.00000000E+00  0.00000000E+00
  0.00000000E+00  0.00000000E+00  0.00000000E+00
  0.00000000E+00  0.00000000E+00  0.00000000E+00
  0.00000000E+00  0.00000000E+00  0.00000000E+00
  0.00000000E+00  0.00000000E+00  0.00000000E+00
  0.00000000E+00  0.00000000E+00  0.00000000E+00
  0.00000000E+00  0.00000000E+00  0.00000000E+00
  0.00000000E+00  0.00000000E+00  0.00000000E+00
  0.00000000E+00  0.00000000E+00  0.00000000E+00
  0.00000000E+00  0.00000000E+00  0.00000000E+00
  0.00000000E+00  0.00000000E+00  0.00000000E+00
  0.00000000E+00  0.00000000E+00  0.00000000E+00
  0.00000000E+00  0.00000000E+00  0.00000000E+00
  0.00000000E+00  0.00000000E+00  0.00000000E+00
  0.00000000E+00  0.00000000E+00  0.00000000E+00
  0.00000000E+00  0.00000000E+00  0.00000000E+00
  0.00000000E+00  0.00000000E+00  0.00000000E+00
  0.00000000E+00  0.00000000E+00  0.00000000E+00
  0.00000000E+00  0.00000000E+00  0.00000000E+00
  0.00000000E+00  0.00000000E+00  0.00000000E+00
  0.00000000E+00  0.00000000E+00  0.00000000E+00
  0.00000000E+00  0.00000000E+00  0.00000000E+00
  0.00000000E+00  0.00000000E+00  0.00000000E+00
  0.00000000E+00  0.00000000E+00  0.00000000E+00
  0.00000000E+00  0.00000000E+00  0.00000000E+00
  0.00000000E+00  0.00000000E+00  0.00000000E+00
  0.00000000E+00  0.00000000E+00  0.00000000E+00
  0.00000000E+00  0.00000000E+00  0.00000000E+00
  0.00000000E+00  0.00000000E+00  0.00000000E+00
  0.00000000E+00  0.00000000E+00  0.00000000E+00
  0.00000000E+00  0.00000000E+00  0.00000000E+00
  0.00000000E+00  0.00000000E+00  0.00000000E+00
  0.00000000E+00  0.00000000E+00  0.00000000E+00
  0.00000000E+00  0.00000000E+00  0.00000000E+00
  0.00000000E+00  0.00000000E+00  0.00000000E+00
  0.00000000E+00  0.00000000E+00  0.00000000E+00
  0.00000000E+00  0.00000000E+00  0.00000000E+00
  0.00000000E+00  0.00000000E+00  0.00000000E+00
  0.00000000E+00  0.00000000E+00  0.00000000E+00
  0.00000000E+00  0.00000000E+00  0.00000000E+00
  0.00000000E+00  0.00000000E+00  0.00000000E+00
  0.00000000E+00  0.00000000E+00  0.00000000E+00
  0.00000000E+00  0.00000000E+00  0.00000000E+00
  0.00000000E+00  0.00000000E+00  0.00000000E+00
  0.00000000E+00  0.00000000E+00  0.00000000E+00
  0.00000000E+00  0.00000000E+00  0.00000000E+00
  0.00000000E+00  0.00000000E+00  0.00000000E+00
  0.00000000E+00  0.00000000E+00  0.00000000E+00
  0.00000000E+00  0.00000000E+00  0.00000000E+00
  0.00000000E+00  0.00000000E+00  0.00000000E+00
  0.00000000E+00  0.00000000E+00  0.00000000E+00
  0.00000000E+00  0.00000000E+00  0.00000000E+00
  0.00000000E+00  0.00000000E+00  0.00000000E+00
  0.00000000E+00  0.00000000E+00  0.00000000E+00
  0.00000000E+00  0.00000000E+00  0.00000000E+00
  0.00000000E+00  0.00000000E+00  0.00000000E+00
  0.00000000E+00  0.00000000E+00  0.00000000E+00
  0.00000000E+00  0.00000000E+00  0.00000000E+00
  0.00000000E+00  0.00000000E+00  0.00000000E+00
  0.00000000E+00  0.00000000E+00  0.00000000E+00
  0.00000000E+00  0.00000000E+00  0.00000000E+00
  0.00000000E+00  0.00000000E+00  0.00000000E+00
  0.00000000E+00  0.00000000E+00  0.00000000E+00
  0.00000000E+00  0.00000000E+00  0.00000000E+00
  0.00000000E+00  0.00000000E+00  0.00000000E+00
  0.00000000E+00  0.00000000E+00  0.00000000E+00
  0.00000000E+00  0.00000000E+00  0.00000000E+00
  0.00000000E+00  0.00000000E+00  0.00000000E+00
  0.00000000E+00  0.00000000E+00  0.00000000E+00
  0.00000000E+00  0.00000000E+00  0.00000000E+00
  0.00000000E+00  0.00000000E+00  0.00000000E+00
  0.00000000E+00  0.00000000E+00  0.00000000E+00
  0.00000000E+00  0.00000000E+00  0.00000000E+00
  0.00000000E+00  0.00000000E+00  0.00000000E+00
  0.00000000E+00  0.00000000E+00  0.00000000E+00
  0.00000000E+00  0.00000000E+00  0.00000000E+00
  0.00000000E+00  0.00000000E+00  0.00000000E+00
  0.00000000E+00  0.00000000E+00  0.00000000E+00
  0.00000000E+00  0.00000000E+00  0.00000000E+00
  0.00000000E+00  0.00000000E+00  0.00000000E+00
  0.00000000E+00  0.00000000E+00  0.00000000E+00
  0.00000000E+00  0.00000000E+00  0.00000000E+00
  0.00000000E+00  0.00000000E+00  0.00000000E+00
  0.00000000E+00  0.00000000E+00  0.00000000E+00
  0.00000000E+00  0.00000000E+00  0.00000000E+00
  0.00000000E+00  0.00000000E+00  0.00000000E+00
  0.00000000E+00  0.00000000E+00  0.00000000E+00
  0.00000000E+00  0.00000000E+00  0.00000000E+00
  0.00000000E+00  0.00000000E+00  0.00000000E+00
  0.00000000E+00  0.00000000E+00  0.00000000E+00
  0.00000000E+00  0.00000000E+00  0.00000000E+00
  0.00000000E+00  0.00000000E+00  0.00000000E+00
  0.00000000E+00  0.00000000E+00  0.00000000E+00
  0.00000000E+00  0.00000000E+00  0.00000000E+00
  0.00000000E+00  0.00000000E+00  0.00000000E+00
  0.00000000E+00  0.00000000E+00  0.00000000E+00
  0.00000000E+00  0.00000000E+00  0.00000000E+00
  0.00000000E+00  0.00000000E+00  0.00000000E+00
  0.00000000E+00  0.00000000E+00  0.00000000E+00
  0.00000000E+00  0.00000000E+00  0.00000000E+00
  0.00000000E+00  0.00000000E+00  0.00000000E+00
  0.00000000E+00  0.00000000E+00  0.00000000E+00
  0.00000000E+00  0.00000000E+00  0.00000000E+00
  0.00000000E+00  0.00000000E+00  0.00000000E+00
  0.00000000E+00  0.00000000E+00  0.00000000E+00
  0.00000000E+00  0.00000000E+00  0.00000000E+00
  0.00000000E+00  0.00000000E+00  0.00000000E+00
  0.00000000E+00  0.00000000E+00  0.00000000E+00
  0.00000000E+00  0.00000000E+00  0.00000000E+00
  0.00000000E+00  0.00000000E+00  0.00000000E+00
  0.00000000E+00  0.00000000E+00  0.00000000E+00
  0.00000000E+00  0.00000000E+00  0.00000000E+00
  0.00000000E+00  0.00000000E+00  0.00000000E+00
  0.00000000E+00  0.00000000E+00  0.00000000E+00
  0.00000000E+00  0.00000000E+00  0.00000000E+00
  0.00000000E+00  0.00000000E+00  0.00000000E+00
  0.00000000E+00  0.00000000E+00  0.00000000E+00
  0.00000000E+00  0.00000000E+00  0.00000000E+00
  0.00000000E+00  0.00000000E+00  0.00000000E+00
  0.00000000E+00  0.00000000E+00  0.00000000E+00
  0.00000000E+00  0.00000000E+00  0.00000000E+00
  0.00000000E+00  0.00000000E+00  0.00000000E+00
  0.00000000E+00  0.00000000E+00  0.00000000E+00
  0.00000000E+00  0.00000000E+00  0.00000000E+00
  0.00000000E+00  0.00000000E+00  0.00000000E+00
  0.00000000E+00  0.00000000E+00  0.00000000E+00
  0.00000000E+00  0.00000000E+00  0.00000000E+00
  0.00000000E+00  0.00000000E+00  0.00000000E+00
  0.00000000E+00  0.00000000E+00  0.00000000E+00
  0.00000000E+00  0.00000000E+00  0.00000000E+00
  0.00000000E+00  0.00000000E+00  0.00000000E+00
  0.00000000E+00  0.00000000E+00  0.00000000E+00
  0.00000000E+00  0.00000000E+00  0.00000000E+00
  0.00000000E+00  0.00000000E+00  0.00000000E+00
  0.00000000E+00  0.00000000E+00  0.00000000E+00
  0.00000000E+00  0.00000000E+00  0.00000000E+00
  0.00000000E+00  0.00000000E+00  0.00000000E+00
  0.00000000E+00  0.00000000E+00  0.00000000E+00
  0.00000000E+00  0.00000000E+00  0.00000000E+00
  0.00000000E+00  0.00000000E+00  0.00000000E+00
  0.00000000E+00  0.00000000E+00  0.00000000E+00
  0.00000000E+00  0.00000000E+00  0.00000000E+00
  0.00000000E+00  0.00000000E+00  0.00000000E+00
  0.00000000E+00  0.00000000E+00  0.00000000E+00
  0.00000000E+00  0.00000000E+00  0.00000000E+00
  0.00000000E+00  0.00000000E+00  0.00000000E+00
  0.00000000E+00  0.00000000E+00  0.00000000E+00
  0.00000000E+00  0.00000000E+00  0.00000000E+00
  0.00000000E+00  0.00000000E+00  0.00000000E+00
  0.00000000E+00  0.00000000E+00  0.00000000E+00
  0.00000000E+00  0.00000000E+00  0.00000000E+00
  0.00000000E+00  0.00000000E+00  0.00000000E+00
  0.00000000E+00  0.00000000E+00  0.00000000E+00
  0.00000000E+00  0.00000000E+00  0.00000000E+00
  0.00000000E+00  0.00000000E+00  0.00000000E+00
  0.00000000E+00  0.00000000E+00  0.00000000E+00
  0.00000000E+00  0.00000000E+00  0.00000000E+00
  0.00000000E+00  0.00000000E+00  0.00000000E+00
  0.00000000E+00  0.00000000E+00  0.00000000E+00
  0.00000000E+00  0.00000000E+00  0.00000000E+00
  0.00000000E+00  0.00000000E+00  0.00000000E+00
  0.00000000E+00  0.00000000E+00  0.00000000E+00
  0.00000000E+00  0.00000000E+00  0.00000000E+00
  0.00000000E+00  0.00000000E+00  0.00000000E+00
  0.00000000E+00  0.00000000E+00  0.00000000E+00
  0.00000000E+00  0.00000000E+00  0.00000000E+00
  0.00000000E+00  0.00000000E+00  0.00000000E+00
  0.00000000E+00  0.00000000E+00  0.00000000E+00
  0.00000000E+00  0.00000000E+00  0.00000000E+00
  0.00000000E+00  0.00000000E+00  0.00000000E+00
  0.00000000E+00  0.00000000E+00  0.00000000E+00
  0.00000000E+00  0.00000000E+00  0.00000000E+00
  0.00000000E+00  0.00000000E+00  0.00000000E+00
  0.00000000E+00  0.00000000E+00  0.00000000E+00
  0.00000000E+00  0.00000000E+00  0.00000000E+00
  0.00000000E+00  0.00000000E+00  0.00000000E+00