Zr  O  F  H                             
   1.00000000000000     
    14.6087084399999991    0.0000000000000000    0.0000000000000000
    -6.0995943700000002   13.5475736500000004    0.0000000000000000
     0.0000000000000000    0.0000000000000000   32.4658957799999968
   Zr   O    F    H 
    80   160    32    32
Selective dynamics
Direct
  0.1072999602879108  0.1107509020259130  0.3626799193464265   F   F   F
  0.3752027684508334  0.1411823791782822  0.3611695660103535   F   F   F
  0.3729099757713499  0.4229177172991427  0.3686418726315495   F   F   F
  0.0769991309152616  0.3675992767162413  0.3710084865553043   F   F   F
  0.4150241426110028  0.2799622327943538  0.4516720934905933   F   F   F
  0.1984057059501083  0.3151122314806543  0.4480415241448767   F   F   F
  0.1804103960495240  0.0775491807715696  0.4568444542699766   F   F   F
  0.4012433377734936  0.0448202538467086  0.4606724581803618   F   F   F
  0.2344424391150781  0.4480134719179034  0.5408472105925028   F   F   F
  0.0161400524639745  0.4843520754729411  0.5390958181964578   F   F   F
  0.4998527713696888  0.2495595232287187  0.5457642774149249   F   F   F
  0.2182112126040039  0.2133152672692802  0.5475478657807713   F   F   F
  0.0541317846340652  0.1198810667362215  0.6300674063190358   T   T   T
  0.3331264416913116  0.1528104052500481  0.6269556762424223   T   T   T
  0.3147023169880652  0.4137799228233271  0.6341217149916488   T   T   T
  0.0357826709372841  0.3818588053770196  0.6381651649209147   T   T   T
  0.3704001904266754  0.2805518511082141  0.7193530470838887   T   T   T
  0.1465786895144568  0.3187768972947612  0.7187559604075429   T   T   T
  0.1160922576860542  0.0772016767773583  0.7259089483737416   T   T   T
  0.3659286869227490  0.0471922743176527  0.7222560438945900   T   T   T
  0.1072999600997520  0.6107509023949831  0.3626799193464265   F   F   F
  0.3752027682626675  0.6411823795473524  0.3611695660103535   F   F   F
  0.3729099755831840  0.9229177176682128  0.3686418726315495   F   F   F
  0.0769991314116254  0.8675992770853114  0.3710084865553043   F   F   F
  0.4150241424228369  0.7799622331634239  0.4516720934905933   F   F   F
  0.1984057057619495  0.8151122318497244  0.4480415241448767   F   F   F
  0.1804103962376828  0.5775491804024995  0.4568444542699766   F   F   F
  0.4012433379616525  0.5448202534776385  0.4606724581803618   F   F   F
  0.2344424386187143  0.9480134715488333  0.5408472105925028   F   F   F
  0.0161400522758157  0.9843520758420112  0.5390958181964578   F   F   F
  0.4998527715578547  0.7495595228596557  0.5457642774149249   F   F   F
  0.2182112127921698  0.7133152669002101  0.5475478657807713   F   F   F
  0.0541209229260098  0.6198659573785141  0.6300711044116976   T   T   T
  0.3331272002650244  0.6528122180627326  0.6269611431333730   T   T   T
  0.3146946676633920  0.9137716800947359  0.6341183686147202   T   T   T
  0.0357752278194849  0.8818516310124862  0.6381628659827416   T   T   T
  0.3704085530348563  0.7805567546764741  0.7193521453742748   T   T   T
  0.1465529463063637  0.8187636643461984  0.7187507474006991   T   T   T
  0.1161059659383180  0.5772044064628445  0.7259162559290228   T   T   T
  0.3659438170330918  0.5471954148184117  0.7222621572437389   T   T   T
  0.6072999602879108  0.1107509020259130  0.3626799193464265   F   F   F
  0.8752027684508334  0.1411823791782822  0.3611695660103535   F   F   F
  0.8729099757713499  0.4229177172991427  0.3686418726315495   F   F   F
  0.5769991309152616  0.3675992767162413  0.3710084865553043   F   F   F
  0.9150241426110028  0.2799622327943538  0.4516720934905933   F   F   F
  0.6984057059501083  0.3151122314806543  0.4480415241448767   F   F   F
  0.6804103960495240  0.0775491807715696  0.4568444542699766   F   F   F
  0.9012433377734936  0.0448202538467086  0.4606724581803618   F   F   F
  0.7344424391150781  0.4480134719179034  0.5408472105925028   F   F   F
  0.5161400524639745  0.4843520754729411  0.5390958181964578   F   F   F
  0.9998527713696888  0.2495595232287187  0.5457642774149249   F   F   F
  0.7182112126040039  0.2133152672692802  0.5475478657807713   F   F   F
  0.5552880782667262  0.1193129702955651  0.6302774121889692   T   T   T
  0.8339817630340756  0.1555878553136835  0.6268052225223266   T   T   T
  0.8175025700193536  0.4174887994305708  0.6348242329891904   T   T   T
  0.5367395035073952  0.3833144957578319  0.6381415297663431   T   T   T
  0.8660268114938635  0.2831640846643353  0.7247666117862631   T   T   T
  0.6571589836259900  0.3285468701332225  0.7171603917203196   T   T   T
  0.6335300855429170  0.0902455570414094  0.7253564258808709   T   T   T
  0.8497278827254318  0.0564939079048714  0.7225994376486347   T   T   T
  0.6072999600997520  0.6107509023949831  0.3626799193464265   F   F   F
  0.8752027682626675  0.6411823795473524  0.3611695660103535   F   F   F
  0.8729099755831840  0.9229177176682128  0.3686418726315495   F   F   F
  0.5769991314116254  0.8675992770853114  0.3710084865553043   F   F   F
  0.9150241424228369  0.7799622331634239  0.4516720934905933   F   F   F
  0.6984057057619495  0.8151122318497244  0.4480415241448767   F   F   F
  0.6804103962376828  0.5775491804024995  0.4568444542699766   F   F   F
  0.9012433379616525  0.5448202534776385  0.4606724581803618   F   F   F
  0.7344424386187143  0.9480134715488333  0.5408472105925028   F   F   F
  0.5161400522758157  0.9843520758420112  0.5390958181964578   F   F   F
  0.9998527715578547  0.7495595228596557  0.5457642774149249   F   F   F
  0.7182112127921698  0.7133152669002101  0.5475478657807713   F   F   F
  0.5552949750842510  0.6193201756048019  0.6302813328490980   T   T   T
  0.8339896550975651  0.6556155189511355  0.6268144305639085   T   T   T
  0.8175126277299386  0.9174683393408429  0.6348242536556089   T   T   T
  0.5367508655531531  0.8833109460821296  0.6381392006132289   T   T   T
  0.8660327474758110  0.7831538967345116  0.7248390441664847   T   T   T
  0.6571683969368580  0.8285390259764779  0.7171628238642155   T   T   T
  0.6335272698623668  0.5902398943704983  0.7253606487611820   T   T   T
  0.8497162214023272  0.5564920424491465  0.7226044716550128   T   T   T
  0.1332582265626669  0.0059689038117909  0.4018946551303202   F   F   F
  0.2181988781032373  0.3661521172833773  0.3825003874881503   F   F   F
  0.3442342672352794  0.0153678283195759  0.3310424656331463   F   F   F
  0.2448769086493598  0.1532202571934320  0.3416956173386723   F   F   F
  0.4183450511797773  0.3018822266376802  0.3812778210674068   F   F   F
  0.4479630891185806  0.0541491356276893  0.3979564111383311   F   F   F
  0.0314071462063694  0.2142568009586014  0.3475222399669775   F   F   F
  0.0226551989466728  0.4641564239069496  0.3395728532397797   F   F   F
  0.4439043559933253  0.1765955828555335  0.4903745631379621   F   F   F
  0.0376710753307208  0.0432766736795003  0.4766665390927969   F   F   F
  0.1526998132164152  0.1823197248313164  0.4187291303502150   F   F   F
  0.0609778626800761  0.3186209200641628  0.4320697212870783   F   F   F
  0.2410437716299114  0.4716434307777320  0.4708552709769123   F   F   F
  0.2643985499594521  0.2237504121632909  0.4830709797220933   F   F   F
  0.3563347177442537  0.3876955036889598  0.4380853724283114   F   F   F
  0.3354974923431868  0.1352524710577967  0.4250661838045247   F   F   F
  0.2604301099607511  0.3429483656654639  0.5797765521564813   F   F   F
  0.3553411594725162  0.2126448018977953  0.5638597850510294   F   F   F
  0.4741103145572438  0.3547873036290881  0.5067627900516811   F   F   F
  0.3790288096649093  0.4850060784869754  0.5227594134782905   F   F   F
  0.0583022340726487  0.1417510576146626  0.5591551179124750   F   F   F
  0.0814467987013927  0.3927345269682263  0.5733121160164103   F   F   F
  0.1760565422169620  0.0558733964144196  0.5274894555519936   F   F   F
  0.1528366743269487  0.3047856851473938  0.5132875909207399   F   F   F
  0.0802705770115102  0.0136589069377649  0.6692700088752535   T   T   T
  0.1755657304309794  0.3843384582778712  0.6567106145655427   T   T   T
  0.2897938793016943  0.0215297387738073  0.5962497631852985   T   T   T
  0.1972185698628943  0.1551330848227793  0.6106620302412412   T   T   T
  0.3759763812249393  0.3112603834969941  0.6496691667244942   T   T   T
  0.3989400218415003  0.0561170154500405  0.6607036082623295   T   T   T
  0.4911740691490487  0.2241685516285109  0.6163190082187034   T   T   T
  0.4703923995740351  0.4733915204438734  0.6031632119510170   T   T   T
  0.3861976397193589  0.1679172228905184  0.7597241719338890   T   T   T
  0.4906420700918406  0.0468670390407990  0.7438010206543040   T   T   T
  0.1148974675606429  0.1924883233819938  0.6862766165106026   T   T   T
  0.0137439445213191  0.3249447495216801  0.7021581589417090   T   T   T
  0.2059515214832844  0.4858802499285209  0.7410989814052525   T   T   T
  0.2146966477692257  0.2183886835403409  0.7536544803310042   T   T   T
  0.3115807773760580  0.3891488375911546  0.7106513932606978   T   T   T
  0.2980584830184184  0.1451460623514491  0.6916041860662931   T   T   T
  0.1332582267508329  0.5059689034427208  0.4018946551303202   F   F   F
  0.2181988782913962  0.8661521169143072  0.3825003874881503   F   F   F
  0.3442342677316361  0.5153678286886461  0.3310424656331463   F   F   F
  0.2448769088375258  0.6532202568243619  0.3416956173386723   F   F   F
  0.4183450516761411  0.8018822270067503  0.3812778210674068   F   F   F
  0.4479630886222168  0.5541491352586192  0.3979564111383311   F   F   F
  0.0314071467027262  0.7142568013276644  0.3475222399669775   F   F   F
  0.0226551984503160  0.9641564235378794  0.3395728532397797   F   F   F
  0.4439043561814913  0.6765955824864633  0.4903745631379621   F   F   F
  0.0376710748343640  0.5432766733104302  0.4766665390927969   F   F   F
  0.1526998137127720  0.6823197252003865  0.4187291303502150   F   F   F
  0.0609778628682420  0.8186209196950927  0.4320697212870783   F   F   F
  0.2410437718180773  0.9716434304086619  0.4708552709769123   F   F   F
  0.2643985494630883  0.7237504117942208  0.4830709797220933   F   F   F
  0.3563347182406105  0.8876955040580299  0.4380853724283114   F   F   F
  0.3354974925313456  0.6352524706887266  0.4250661838045247   F   F   F
  0.2604301101489170  0.8429483652963938  0.5797765521564813   F   F   F
  0.3553411589761595  0.7126448015287252  0.5638597850510294   F   F   F
  0.4741103143690779  0.8547873039981582  0.5067627900516811   F   F   F
  0.3790288101612731  0.9850060788560455  0.5227594134782905   F   F   F
  0.0583022335762848  0.6417510572455924  0.5591551179124750   F   F   F
  0.0814467982050360  0.8927345265991562  0.5733121160164103   F   F   F
  0.1760565417206053  0.5558733960453495  0.5274894555519936   F   F   F
  0.1528366745151146  0.8047856847783237  0.5132875909207399   F   F   F
  0.0802560350284403  0.5136473902584299  0.6692741695671843   T   T   T
  0.1755616066027341  0.8843309351287748  0.6567143199506373   T   T   T
  0.2898058166421322  0.5215356725529993  0.5962523542679027   T   T   T
  0.1972240643690314  0.6551433964868218  0.6106679409647077   T   T   T
  0.3759874936778461  0.8112693225057606  0.6496736427417374   T   T   T
  0.3989441458143987  0.5561305786670179  0.6607106789149380   T   T   T
  0.4911788627274463  0.7241727960220038  0.6163185543540515   T   T   T
  0.4703895763040486  0.9733867135323755  0.6031612926874457   T   T   T
  0.3862292991717514  0.6679390001968166  0.7597254396599947   T   T   T
  0.4906392804254207  0.5468449709850107  0.7438031338503711   T   T   T
  0.1149215047475717  0.6924965996775395  0.6862752541321671   T   T   T
  0.0137085284444727  0.8249233165378472  0.7021645433732524   T   T   T
  0.2059250057817502  0.9858795082335773  0.7410942064053366   T   T   T
  0.2147192497171101  0.7184097803562679  0.7536617253116046   T   T   T
  0.3115775618986230  0.8891568302432469  0.7106539539978383   T   T   T
  0.2980575622066659  0.6451613566804825  0.6916111405314580   T   T   T
  0.6332582265626669  0.0059689038117909  0.4018946551303202   F   F   F
  0.7181988787877600  0.3661521172833773  0.3825003874881503   F   F   F
  0.8442342672352794  0.0153678283195759  0.3310424656331463   F   F   F
  0.7448769086493598  0.1532202571934320  0.3416956173386723   F   F   F
  0.9183450511797773  0.3018822266376802  0.3812778210674068   F   F   F
  0.9479630891185806  0.0541491356276893  0.3979564111383311   F   F   F
  0.5314071462063694  0.2142568009586014  0.3475222399669775   F   F   F
  0.5226551989466728  0.4641564239069496  0.3395728532397797   F   F   F
  0.9439043559933253  0.1765955828555335  0.4903745631379621   F   F   F
  0.5376710753307208  0.0432766736795003  0.4766665390927969   F   F   F
  0.6526998132164152  0.1823197248313164  0.4187291303502150   F   F   F
  0.5609778626800761  0.3186209200641628  0.4320697212870783   F   F   F
  0.7410437716299114  0.4716434307777320  0.4708552709769123   F   F   F
  0.7643985499594521  0.2237504121632909  0.4830709797220933   F   F   F
  0.8563347177442537  0.3876955036889598  0.4380853724283114   F   F   F
  0.8354974923431868  0.1352524710577967  0.4250661838045247   F   F   F
  0.7604301099607511  0.3429483656654639  0.5797765521564813   F   F   F
  0.8553411594725162  0.2126448018977953  0.5638597850510294   F   F   F
  0.9741103145572438  0.3547873036290881  0.5067627900516811   F   F   F
  0.8790288096649093  0.4850060784869754  0.5227594134782905   F   F   F
  0.5583022340726487  0.1417510576146626  0.5591551179124750   F   F   F
  0.5814467987013927  0.3927345269682263  0.5733121160164103   F   F   F
  0.6760565422169620  0.0558733964144196  0.5274894555519936   F   F   F
  0.6528366743269487  0.3047856851473938  0.5132875909207399   F   F   F
  0.5806153708670168  0.0141201358304788  0.6687786421000590   T   T   T
  0.6723121461460662  0.3791549851144833  0.6540546299007197   T   T   T
  0.7903876717929161  0.0223826550271901  0.5960277042408610   T   T   T
  0.6969030871511038  0.1543405954744388  0.6100567111910535   T   T   T
  0.8791928969119771  0.3130426213820788  0.6470890740822911   T   T   T
  0.8997305710827395  0.0647888307498449  0.6602790505578391   T   T   T
  0.9963453519300514  0.2271320698512742  0.6163073116046625   T   T   T
  0.9734471941634374  0.4768920340148675  0.6036581758692253   T   T   T
  0.8774983906868470  0.1748334105108100  0.7587823572593496   T   T   T
  0.9825773715517638  0.0567818678148246  0.7398393083716335   T   T   T
  0.6012962487754360  0.1911704565803465  0.6851749391522852   T   T   T
  0.5128189194847222  0.3232424878676121  0.7019223887759415   T   T   T
  0.6965938742779155  0.4831448181546806  0.7357202011856331   T   T   T
  0.7140120998271586  0.2362973080421543  0.7469509257635821   T   T   T
  0.8140570355364409  0.3979336629436496  0.7048264103898561   T   T   T
  0.7887724209727890  0.1486830679232473  0.6894280789130407   T   T   T
  0.6332582267508329  0.5059689034427208  0.4018946551303202   F   F   F
  0.7181988782913962  0.8661521169143072  0.3825003874881503   F   F   F
  0.8442342677316361  0.5153678286886461  0.3310424656331463   F   F   F
  0.7448769088375258  0.6532202568243619  0.3416956173386723   F   F   F
  0.9183450516761411  0.8018822270067503  0.3812778210674068   F   F   F
  0.9479630893067394  0.5541491352586192  0.3979564111383311   F   F   F
  0.5314071467027262  0.7142568013276644  0.3475222399669775   F   F   F
  0.5226551984503160  0.9641564235378794  0.3395728532397797   F   F   F
  0.9439043561814913  0.6765955824864633  0.4903745631379621   F   F   F
  0.5376710748343640  0.5432766733104302  0.4766665390927969   F   F   F
  0.6526998137127720  0.6823197252003865  0.4187291303502150   F   F   F
  0.5609778628682420  0.8186209196950927  0.4320697212870783   F   F   F
  0.7410437718180773  0.9716434304086619  0.4708552709769123   F   F   F
  0.7643985494630883  0.7237504117942208  0.4830709797220933   F   F   F
  0.8563347182406105  0.8876955040580299  0.4380853724283114   F   F   F
  0.8354974925313456  0.6352524706887266  0.4250661838045247   F   F   F
  0.7604301101489170  0.8429483652963938  0.5797765521564813   F   F   F
  0.8553411589761595  0.7126448015287252  0.5638597850510294   F   F   F
  0.9741103150536077  0.8547873039981582  0.5067627900516811   F   F   F
  0.8790288101612731  0.9850060788560455  0.5227594134782905   F   F   F
  0.5583022335762848  0.6417510572455924  0.5591551179124750   F   F   F
  0.5814467982050360  0.8927345265991562  0.5733121160164103   F   F   F
  0.6760565417206053  0.5558733960453495  0.5274894555519936   F   F   F
  0.6528366745151146  0.8047856847783237  0.5132875909207399   F   F   F
  0.5806250981560745  0.5141189282016880  0.6687783400495859   T   T   T
  0.6723237529764375  0.8791637367092348  0.6540558938702933   T   T   T
  0.7903797434597161  0.5223833521838521  0.5960303641859674   T   T   T
  0.6969117338153343  0.6543490190455501  0.6100589473707606   T   T   T
  0.8792070607560241  0.8130584012762591  0.6470496936537498   T   T   T
  0.8997263024084243  0.5647927953204122  0.6602752434013094   T   T   T
  0.9963575827882379  0.7271316802326103  0.6163068059254510   T   T   T
  0.9734550543149081  0.9769110609154557  0.6036549970286952   T   T   T
  0.8774353960758586  0.6747813875801626  0.7588270793630477   T   T   T
  0.9825950654547507  0.5568641530701932  0.7398346811491930   T   T   T
  0.6013241607658519  0.6911786627895027  0.6851810693120750   T   T   T
  0.5128268003450950  0.8232432295327902  0.7019218988003897   T   T   T
  0.6966088411826626  0.9831470236426467  0.7357216640537049   T   T   T
  0.7139897821027338  0.7362936026917088  0.7469768080468943   T   T   T
  0.8140584751173497  0.8979052992475123  0.7048294116589767   T   T   T
  0.7888174597635925  0.6487288062732608  0.6894484874181540   T   T   T
  0.6509966078047822  0.0864583616471390  0.8022388850570953   T   T   T
  0.7760389473020064  0.4019730364085129  0.8362754384189929   T   T   T
  0.6509677987924770  0.5864503907537775  0.8022884856141376   T   T   T
  0.7760765640208810  0.9019719507866346  0.8362612924121737   T   T   T
  0.2012141468380754  0.2117846014862079  0.8421088655549680   T   T   T
  0.2012870174250060  0.7118032907074640  0.8421043469500133   T   T   T
  0.2284491148351675  0.4790422009899668  0.8511872880131131   T   T   T
  0.2284238516445559  0.9790658790356668  0.8512206435998235   T   T   T
  0.4547137037828218  0.1379163613540811  0.8337729579428270   T   T   T
  0.4547521439492160  0.6379086595224780  0.8337720916705980   T   T   T
  0.4416636816561579  0.3546705535769136  0.7779591339409668   T   T   T
  0.4416689906947063  0.8546939503819914  0.7779541650424812   T   T   T
  0.9265004361228388  0.3730422173452399  0.7768408320952302   T   T   T
  0.9265357216556738  0.8730285780329824  0.7768867863511616   T   T   T
  0.1132035600354605  0.3187765388341215  0.7778938898795752   T   T   T
  0.1132110197152043  0.8187790493207884  0.7778934310460265   T   T   T
  0.0808129939311426  0.5016610647896983  0.7907846683827595   T   T   T
  0.0808486929469616  0.0016997695849109  0.7908275781638104   T   T   T
  0.1419138199026909  0.0660552245276416  0.8797242667456961   T   T   T
  0.1419863601062214  0.5660551977381461  0.8797062017650009   T   T   T
  0.2239846593893683  0.3424860964810770  0.8884304571996527   T   T   T
  0.2239323521350113  0.8424638501291541  0.8884333296059720   T   T   T
  0.4116477322049224  0.9543323604374947  0.8321151396536071   T   T   T
  0.4117252268929046  0.4543161415160406  0.8321336286657836   T   T   T
  0.5835609083243247  0.3142830281253803  0.7803312836497709   T   T   T
  0.5835571026562423  0.8142908380839101  0.7803362774642684   T   T   T
  0.6535102615576152  0.9643907373102307  0.8464814402365386   T   T   T
  0.6534694668418360  0.4643721810122945  0.8465334605809722   T   T   T
  0.7028401653951172  0.2294193793529549  0.8504994818138373   T   T   T
  0.7028338522345685  0.7294362253099066  0.8505185763383323   T   T   T
  0.8567249301598135  0.1338588496009073  0.8342281818006598   T   T   T
  0.8567938547564190  0.6337475198327532  0.8342925638568260   T   T   T
  0.6879243026539802  0.1788500901944396  0.8289158213668536   T   T   T
  0.7099467487065737  0.4398788180889028  0.8425248769349722   T   T   T
  0.6878815143838075  0.6788244457347997  0.8289458138488830   T   T   T
  0.7099875756395364  0.9398892869606941  0.8424844801065300   T   T   T
  0.2143267059270634  0.2861592913430505  0.8685179910108560   T   T   T
  0.2143197856367758  0.7861636909085153  0.8685114457284860   T   T   T
  0.1775762600615741  0.5237020111850542  0.8679059512459751   T   T   T
  0.1775217682312699  0.0237044128927210  0.8679340783575227   T   T   T
  0.4183578628160068  0.1729208466266119  0.7869447839266266   T   T   T
  0.4183945986055913  0.6729328565437672  0.7869454178780385   T   T   T
  0.4288105864879772  0.4191109679388949  0.8097202864297953   T   T   T
  0.4287688408925182  0.9191225165843890  0.8097044912545134   T   T   T
  0.0061481706142524  0.4413474583278745  0.7866689613571544   T   T   T
  0.0062537323367995  0.9414335200776722  0.7867252753209297   T   T   T
  0.2099699562866377  0.2239568398295917  0.7837529047350348   T   T   T
  0.2099962477457928  0.7239800324916456  0.7837575458967406   T   T   T
  0.1851163488300050  0.4663841109368334  0.7698829932536262   T   T   T
  0.1851180017670888  0.9663669404944413  0.7698786163028765   T   T   T
  0.1713734525264415  0.1438064685732257  0.8587752543496445   T   T   T
  0.1714497935091979  0.6438230134766967  0.8587720983997086   T   T   T
  0.2273542918146528  0.4187943621494365  0.8678211113516329   T   T   T
  0.2273046925130607  0.9187984742669555  0.8678433061957891   T   T   T
  0.4427695503233063  0.0687080838660759  0.8333395014091655   T   T   T
  0.4428196644539618  0.5686852082428445  0.8333390044586649   T   T   T
  0.5248212470277132  0.3353067006957255  0.7814611393841355   T   T   T
  0.5248250870121001  0.8353205905736724  0.7814640710557794   T   T   T
  0.6565123589474812  0.0309115925353623  0.8214831576867672   T   T   T
  0.6564699234586537  0.5309023317347042  0.8215386023939301   T   T   T
  0.7467143794999930  0.3279812195245385  0.8408139618751124   T   T   T
  0.7467376288532118  0.8279799858961683  0.8408126891527378   T   T   T
  0.8723477813571072  0.1568327335273081  0.8055824110643630   T   T   T
  0.8723647526287046  0.6567336144641014  0.8056265859695083   T   T   T
 
  0.00000000E+00  0.00000000E+00  0.00000000E+00
  0.00000000E+00  0.00000000E+00  0.00000000E+00
  0.00000000E+00  0.00000000E+00  0.00000000E+00
  0.00000000E+00  0.00000000E+00  0.00000000E+00
  0.00000000E+00  0.00000000E+00  0.00000000E+00
  0.00000000E+00  0.00000000E+00  0.00000000E+00
  0.00000000E+00  0.00000000E+00  0.00000000E+00
  0.00000000E+00  0.00000000E+00  0.00000000E+00
  0.00000000E+00  0.00000000E+00  0.00000000E+00
  0.00000000E+00  0.00000000E+00  0.00000000E+00
  0.00000000E+00  0.00000000E+00  0.00000000E+00
  0.00000000E+00  0.00000000E+00  0.00000000E+00
  0.00000000E+00  0.00000000E+00  0.00000000E+00
  0.00000000E+00  0.00000000E+00  0.00000000E+00
  0.00000000E+00  0.00000000E+00  0.00000000E+00
  0.00000000E+00  0.00000000E+00  0.00000000E+00
  0.00000000E+00  0.00000000E+00  0.00000000E+00
  0.00000000E+00  0.00000000E+00  0.00000000E+00
  0.00000000E+00  0.00000000E+00  0.00000000E+00
  0.00000000E+00  0.00000000E+00  0.00000000E+00
  0.00000000E+00  0.00000000E+00  0.00000000E+00
  0.00000000E+00  0.00000000E+00  0.00000000E+00
  0.00000000E+00  0.00000000E+00  0.00000000E+00
  0.00000000E+00  0.00000000E+00  0.00000000E+00
  0.00000000E+00  0.00000000E+00  0.00000000E+00
  0.00000000E+00  0.00000000E+00  0.00000000E+00
  0.00000000E+00  0.00000000E+00  0.00000000E+00
  0.00000000E+00  0.00000000E+00  0.00000000E+00
  0.00000000E+00  0.00000000E+00  0.00000000E+00
  0.00000000E+00  0.00000000E+00  0.00000000E+00
  0.00000000E+00  0.00000000E+00  0.00000000E+00
  0.00000000E+00  0.00000000E+00  0.00000000E+00
  0.00000000E+00  0.00000000E+00  0.00000000E+00
  0.00000000E+00  0.00000000E+00  0.00000000E+00
  0.00000000E+00  0.00000000E+00  0.00000000E+00
  0.00000000E+00  0.00000000E+00  0.00000000E+00
  0.00000000E+00  0.00000000E+00  0.00000000E+00
  0.00000000E+00  0.00000000E+00  0.00000000E+00
  0.00000000E+00  0.00000000E+00  0.00000000E+00
  0.00000000E+00  0.00000000E+00  0.00000000E+00
  0.00000000E+00  0.00000000E+00  0.00000000E+00
  0.00000000E+00  0.00000000E+00  0.00000000E+00
  0.00000000E+00  0.00000000E+00  0.00000000E+00
  0.00000000E+00  0.00000000E+00  0.00000000E+00
  0.00000000E+00  0.00000000E+00  0.00000000E+00
  0.00000000E+00  0.00000000E+00  0.00000000E+00
  0.00000000E+00  0.00000000E+00  0.00000000E+00
  0.00000000E+00  0.00000000E+00  0.00000000E+00
  0.00000000E+00  0.00000000E+00  0.00000000E+00
  0.00000000E+00  0.00000000E+00  0.00000000E+00
  0.00000000E+00  0.00000000E+00  0.00000000E+00
  0.00000000E+00  0.00000000E+00  0.00000000E+00
  0.00000000E+00  0.00000000E+00  0.00000000E+00
  0.00000000E+00  0.00000000E+00  0.00000000E+00
  0.00000000E+00  0.00000000E+00  0.00000000E+00
  0.00000000E+00  0.00000000E+00  0.00000000E+00
  0.00000000E+00  0.00000000E+00  0.00000000E+00
  0.00000000E+00  0.00000000E+00  0.00000000E+00
  0.00000000E+00  0.00000000E+00  0.00000000E+00
  0.00000000E+00  0.00000000E+00  0.00000000E+00
  0.00000000E+00  0.00000000E+00  0.00000000E+00
  0.00000000E+00  0.00000000E+00  0.00000000E+00
  0.00000000E+00  0.00000000E+00  0.00000000E+00
  0.00000000E+00  0.00000000E+00  0.00000000E+00
  0.00000000E+00  0.00000000E+00  0.00000000E+00
  0.00000000E+00  0.00000000E+00  0.00000000E+00
  0.00000000E+00  0.00000000E+00  0.00000000E+00
  0.00000000E+00  0.00000000E+00  0.00000000E+00
  0.00000000E+00  0.00000000E+00  0.00000000E+00
  0.00000000E+00  0.00000000E+00  0.00000000E+00
  0.00000000E+00  0.00000000E+00  0.00000000E+00
  0.00000000E+00  0.00000000E+00  0.00000000E+00
  0.00000000E+00  0.00000000E+00  0.00000000E+00
  0.00000000E+00  0.00000000E+00  0.00000000E+00
  0.00000000E+00  0.00000000E+00  0.00000000E+00
  0.00000000E+00  0.00000000E+00  0.00000000E+00
  0.00000000E+00  0.00000000E+00  0.00000000E+00
  0.00000000E+00  0.00000000E+00  0.00000000E+00
  0.00000000E+00  0.00000000E+00  0.00000000E+00
  0.00000000E+00  0.00000000E+00  0.00000000E+00
  0.00000000E+00  0.00000000E+00  0.00000000E+00
  0.00000000E+00  0.00000000E+00  0.00000000E+00
  0.00000000E+00  0.00000000E+00  0.00000000E+00
  0.00000000E+00  0.00000000E+00  0.00000000E+00
  0.00000000E+00  0.00000000E+00  0.00000000E+00
  0.00000000E+00  0.00000000E+00  0.00000000E+00
  0.00000000E+00  0.00000000E+00  0.00000000E+00
  0.00000000E+00  0.00000000E+00  0.00000000E+00
  0.00000000E+00  0.00000000E+00  0.00000000E+00
  0.00000000E+00  0.00000000E+00  0.00000000E+00
  0.00000000E+00  0.00000000E+00  0.00000000E+00
  0.00000000E+00  0.00000000E+00  0.00000000E+00
  0.00000000E+00  0.00000000E+00  0.00000000E+00
  0.00000000E+00  0.00000000E+00  0.00000000E+00
  0.00000000E+00  0.00000000E+00  0.00000000E+00
  0.00000000E+00  0.00000000E+00  0.00000000E+00
  0.00000000E+00  0.00000000E+00  0.00000000E+00
  0.00000000E+00  0.00000000E+00  0.00000000E+00
  0.00000000E+00  0.00000000E+00  0.00000000E+00
  0.00000000E+00  0.00000000E+00  0.00000000E+00
  0.00000000E+00  0.00000000E+00  0.00000000E+00
  0.00000000E+00  0.00000000E+00  0.00000000E+00
  0.00000000E+00  0.00000000E+00  0.00000000E+00
  0.00000000E+00  0.00000000E+00  0.00000000E+00
  0.00000000E+00  0.00000000E+00  0.00000000E+00
  0.00000000E+00  0.00000000E+00  0.00000000E+00
  0.00000000E+00  0.00000000E+00  0.00000000E+00
  0.00000000E+00  0.00000000E+00  0.00000000E+00
  0.00000000E+00  0.00000000E+00  0.00000000E+00
  0.00000000E+00  0.00000000E+00  0.00000000E+00
  0.00000000E+00  0.00000000E+00  0.00000000E+00
  0.00000000E+00  0.00000000E+00  0.00000000E+00
  0.00000000E+00  0.00000000E+00  0.00000000E+00
  0.00000000E+00  0.00000000E+00  0.00000000E+00
  0.00000000E+00  0.00000000E+00  0.00000000E+00
  0.00000000E+00  0.00000000E+00  0.00000000E+00
  0.00000000E+00  0.00000000E+00  0.00000000E+00
  0.00000000E+00  0.00000000E+00  0.00000000E+00
  0.00000000E+00  0.00000000E+00  0.00000000E+00
  0.00000000E+00  0.00000000E+00  0.00000000E+00
  0.00000000E+00  0.00000000E+00  0.00000000E+00
  0.00000000E+00  0.00000000E+00  0.00000000E+00
  0.00000000E+00  0.00000000E+00  0.00000000E+00
  0.00000000E+00  0.00000000E+00  0.00000000E+00
  0.00000000E+00  0.00000000E+00  0.00000000E+00
  0.00000000E+00  0.00000000E+00  0.00000000E+00
  0.00000000E+00  0.00000000E+00  0.00000000E+00
  0.00000000E+00  0.00000000E+00  0.00000000E+00
  0.00000000E+00  0.00000000E+00  0.00000000E+00
  0.00000000E+00  0.00000000E+00  0.00000000E+00
  0.00000000E+00  0.00000000E+00  0.00000000E+00
  0.00000000E+00  0.00000000E+00  0.00000000E+00
  0.00000000E+00  0.00000000E+00  0.00000000E+00
  0.00000000E+00  0.00000000E+00  0.00000000E+00
  0.00000000E+00  0.00000000E+00  0.00000000E+00
  0.00000000E+00  0.00000000E+00  0.00000000E+00
  0.00000000E+00  0.00000000E+00  0.00000000E+00
  0.00000000E+00  0.00000000E+00  0.00000000E+00
  0.00000000E+00  0.00000000E+00  0.00000000E+00
  0.00000000E+00  0.00000000E+00  0.00000000E+00
  0.00000000E+00  0.00000000E+00  0.00000000E+00
  0.00000000E+00  0.00000000E+00  0.00000000E+00
  0.00000000E+00  0.00000000E+00  0.00000000E+00
  0.00000000E+00  0.00000000E+00  0.00000000E+00
  0.00000000E+00  0.00000000E+00  0.00000000E+00
  0.00000000E+00  0.00000000E+00  0.00000000E+00
  0.00000000E+00  0.00000000E+00  0.00000000E+00
  0.00000000E+00  0.00000000E+00  0.00000000E+00
  0.00000000E+00  0.00000000E+00  0.00000000E+00
  0.00000000E+00  0.00000000E+00  0.00000000E+00
  0.00000000E+00  0.00000000E+00  0.00000000E+00
  0.00000000E+00  0.00000000E+00  0.00000000E+00