 F Zr O                                 
   1.00000000000000     
    14.6087084399999991    0.0000000000000000    0.0000000000000000
    -6.0995943700000002   13.5475736500000004    0.0000000000000000
     0.0000000000000000    0.0000000000000000   32.4658957799999968
   F    Zr   O 
    32    80   144
Selective dynamics
Direct
  0.8219986885623439 -0.0047750834807626  0.7839164426134521   T   T   T
  0.9077859311571745  0.3406363032968166  0.7796273553734772   T   T   T
  0.8218977211157589  0.4951267867403134  0.7839019509679112   T   T   T
  0.9078092884939976  0.8406821392166651  0.7796492201988725   T   T   T
  0.6456817247787772  0.0576928462989914  0.7815382464914977   T   T   T
  0.3219971323657201 -0.0047735269065588  0.7839184380208658   T   T   T
  0.1456811842926282  0.0576935306891862  0.7815385837155003   T   T   T
  0.1149085924534155  0.3277809137667287  0.7757243652560972   T   T   T
  0.4077860964610027  0.3406353706195229  0.7796299138660430   T   T   T
  0.1149337351193959  0.8277630055289348  0.7757500461202015   T   T   T
  0.1458099829870924  0.5576467671980646  0.7815367622784720   T   T   T
  0.4078077350651947  0.8406810665143905  0.7796491111927522   T   T   T
  0.3218962268865287  0.4951235730479656  0.7839024987435573   T   T   T
  0.6149326947901955  0.8277619940697961  0.7757513843118058   T   T   T
  0.6458113295878564  0.5576463690521262  0.7815373339611313   T   T   T
  0.6149091870737502  0.3277818012291221  0.7757246768090658   T   T   T
  0.2204691353031724  0.7313218848849385  0.7512515908260726   T   T   T
  0.2204555546458608  0.2313177941056474  0.7512350226717669   T   T   T
  0.7204706252806817  0.7313228428067292  0.7512514416812106   T   T   T
  0.7204561645614193  0.2313173813860351  0.7512352104562466   T   T   T
  0.4365705450888213  0.1822474438911772  0.7525585194800057   T   T   T
  0.9365694235289881  0.1822484142759068  0.7525596267805700   T   T   T
  0.9365717691604352  0.6822560395644283  0.7525845424601996   T   T   T
  0.4365681486156647  0.6822541698741956  0.7525849093511062   T   T   T
  0.4861345698340376  0.5179093415249095  0.7372698445288717   T   T   T
  0.9861348278071870  0.5179103657909363  0.7372703254762266   T   T   T
  0.9861016458698669  0.0178556727656043  0.7372053133519333   T   T   T
  0.4861018064193500  0.0178554285623339  0.7372051061090893   T   T   T
  0.2003588131022924  0.4767415443000942  0.7226659122600784   T   T   T
  0.2003217301439560  0.9767473787510262  0.7227214866318027   T   T   T
  0.7003225231392246  0.9767476079347006  0.7227210192629198   T   T   T
  0.7003590325993516  0.4767411213105041  0.7226647208465703   T   T   T
  0.0951266034549718  0.1055278573813112  0.3672158630948488   F   F   F
  0.3773746512413894  0.1426077178034006  0.3643771944616248   F   F   F
  0.3618411486921644  0.4072765797438578  0.3718414927407281   F   F   F
  0.0795930845713357  0.3701966802003724  0.3746801613739450   F   F   F
  0.4141158433838115  0.2764626439214837  0.4541967389387125   F   F   F
  0.1963639075046402  0.3135425434649690  0.4513580703054885   F   F   F
  0.1808303684875199  0.0782114057744963  0.4588223849094106   F   F   F
  0.3985823406464206  0.0411315062310038  0.4616610538506478   F   F   F
  0.2338641767115652  0.4477073720029063  0.5430021488787456   T   T   T
  0.0146229785869495  0.4831773135410064  0.5401576978657761   T   T   T
  0.4974981981607289  0.2457860765520544  0.5477049289925504   T   T   T
  0.2184829418133411  0.2124148396955055  0.5500918372938230   T   T   T
  0.0522209330867611  0.1161384757827527  0.6317634903325902   T   T   T
  0.3328670514418796  0.1526732339999387  0.6305817018386591   T   T   T
  0.3143810322548971  0.4131372861979530  0.6366531555244318   T   T   T
  0.0371628331020166  0.3810328355157672  0.6382710137984170   T   T   T
  0.3810140349711812  0.2941111062958410  0.7247766160784312   T   T   T
  0.1478533387660645  0.3174523622243279  0.7195639908759974   T   T   T
  0.1412473023890451  0.0869218708641612  0.7242958516955641   T   T   T
  0.3599537169589243  0.0451228243292272  0.7297531241532926   T   T   T
  0.0951266032668130  0.6055278577503813  0.3672158630948488   F   F   F
  0.3773746510532305  0.6426077181724708  0.3643771944616248   F   F   F
  0.3618411485039985  0.9072765801129279  0.3718414927407281   F   F   F
  0.0795930850676925  0.8701966805694354  0.3746801613739450   F   F   F
  0.4141158431956455  0.7764626442905538  0.4541967389387125   F   F   F
  0.1963639073164742  0.8135425438340391  0.4513580703054885   F   F   F
  0.1808303686756787  0.5782114054054261  0.4588223849094106   F   F   F
  0.3985823408345794  0.5411315058619337  0.4616610538506478   F   F   F
  0.2338559651147062  0.9476705412199343  0.5429825971839527   T   T   T
  0.0146768124843920  0.9832307425494354  0.5401247175672423   T   T   T
  0.4975209597200721  0.7458143254124247  0.5476982963974159   T   T   T
  0.2184475937630498  0.7123647737424665  0.5502769865479245   T   T   T
  0.0521741419566124  0.6161038274930339  0.6318061496793952   T   T   T
  0.3329833577919400  0.6526954183068402  0.6306343181344415   T   T   T
  0.3144083458774368  0.9131975385689314  0.6366781114952462   T   T   T
  0.0371913039257825  0.8810622659562241  0.6382713681291706   T   T   T
  0.3810301679457512  0.7941617757516412  0.7248043737653496   T   T   T
  0.1478272226785466  0.8174554807189305  0.7195850428555344   T   T   T
  0.1412714343272217  0.5869234595632726  0.7243088295798452   T   T   T
  0.3599948181258904  0.5451386499990271  0.7297715862873321   T   T   T
  0.5951266034549718  0.1055278573813112  0.3672158630948488   F   F   F
  0.8773746512413894  0.1426077178034006  0.3643771944616248   F   F   F
  0.8618411486921644  0.4072765797438578  0.3718414927407281   F   F   F
  0.5795930845713357  0.3701966802003724  0.3746801613739450   F   F   F
  0.9141158433838115  0.2764626439214837  0.4541967389387125   F   F   F
  0.6963639075046402  0.3135425434649690  0.4513580703054885   F   F   F
  0.6808303684875199  0.0782114057744963  0.4588223849094106   F   F   F
  0.8985823406464206  0.0411315062310038  0.4616610538506478   F   F   F
  0.7338638405120361  0.4477072103925744  0.5430023795315344   T   T   T
  0.5146229893820996  0.4831769658142598  0.5401583068304230   T   T   T
 -0.0025021526979873  0.2457861300847696  0.5477045122225551   T   T   T
  0.7184828334759652  0.2124149173083099  0.5500916746221504   T   T   T
  0.5522199700473170  0.1161402466330663  0.6317640600088270   T   T   T
  0.8328656093365768  0.1526721260238347  0.6305812041868731   T   T   T
  0.8143767219654601  0.4131362163968950  0.6366536022821520   T   T   T
  0.5371628296139558  0.3810325092738019  0.6382719905884658   T   T   T
  0.8810101938371081  0.2941132275561257  0.7247804294908223   T   T   T
  0.6478525454632140  0.3174521618902656  0.7195623948924305   T   T   T
  0.6412452714781194  0.0869227069441576  0.7242955382448696   T   T   T
  0.8599510094856825  0.0451179663398178  0.7297551833650784   T   T   T
  0.5951266032668130  0.6055278577503813  0.3672158630948488   F   F   F
  0.8773746510532305  0.6426077181724708  0.3643771944616248   F   F   F
  0.8618411485039985  0.9072765801129279  0.3718414927407281   F   F   F
  0.5795930850676925  0.8701966805694354  0.3746801613739450   F   F   F
  0.9141158431956455  0.7764626442905538  0.4541967389387125   F   F   F
  0.6963639073164742  0.8135425438340391  0.4513580703054885   F   F   F
  0.6808303686756787  0.5782114054054261  0.4588223849094106   F   F   F
  0.8985823408345794  0.5411315058619337  0.4616610538506478   F   F   F
  0.7338562739701561  0.9476701682875545  0.5429829802252548   T   T   T
  0.5146763369011577  0.9832304026225221  0.5401243863534266   T   T   T
 -0.0024793833379846  0.7458146145867028  0.5476982000414536   T   T   T
  0.7184475518103490  0.7123648679838464  0.5502775937488438   T   T   T
  0.5521756766868232  0.6161039325495985  0.6318069455568718   T   T   T
  0.8329819519350368  0.6526960989557294  0.6306341597623695   T   T   T
  0.8144058409725312  0.9131938548632562  0.6366782706968755   T   T   T
  0.5371931921959304  0.8810617882917354  0.6382720189853363   T   T   T
  0.8810269964086948  0.7941612021693378  0.7248035780375006   T   T   T
  0.6478279891376416  0.8174524181412606  0.7195835469600841   T   T   T
  0.6412695973456417  0.5869251872442964  0.7243081218635551   T   T   T
  0.8599912243833527  0.5451363907696949  0.7297714982967373   T   T   T
  0.1193931743256371  0.0008834740676988  0.4056640401745284   F   F   F
  0.2180497308893408  0.3747924411542130  0.3908284319638753   F   F   F
  0.2389180208814707  0.1380119967090963  0.3482289235636813   F   F   F
  0.4193983367659726  0.2985734807206626  0.3856431106919516   F   F   F
  0.4443952156011974  0.0522186029968523  0.3981871098706549   F   F   F
  0.0375694146966410  0.2142309564045064  0.3534142285107791   F   F   F
  0.0125725368541296  0.4605858348664498  0.3408702296400961   F   F   F
  0.4397304114577433  0.1724422221612072  0.4931321758781528   T   T   T
  0.0370389876489483  0.0457272671848514  0.4778093244405781   F   F   F
  0.1565637976168475  0.1828557890881086  0.4203741915049051   F   F   F
  0.0579072245305809  0.3089467832492616  0.4352097997155582   F   F   F
  0.2383875930292234  0.4695083063822310  0.4726240031686544   F   F   F
  0.2633844718644482  0.2231534286584207  0.4851680020393374   F   F   F
  0.3565586546254735  0.3851657429446789  0.4403951209874819   F   F   F
  0.3315617765948033  0.1315206217756923  0.4278511218087786   F   F   F
  0.2641110610838247  0.3441861355862131  0.5801814908210762   T   T   T
  0.3539099696824795  0.2091452673219718  0.5673572305428896   T   T   T
  0.4723463254499186  0.3525621964637061  0.5088033417963894   T   T   T
  0.3779879626542045  0.4838910833290734  0.5242161619886100   T   T   T
  0.0594446225999462  0.1410477720441972  0.5619245517597484   T   T   T
  0.0798976170134206  0.3896372956882346  0.5742326421878021   T   T   T
  0.1747179668686548  0.0551695548149922  0.5292974414685461   T   T   T
  0.1513844587299261  0.3031133650970212  0.5159085038620904   T   T   T
  0.0889323427972874  0.0149791458900170  0.6676504750694847   T   T   T
  0.1693954500074014  0.3670591078352597  0.6536374650287706   T   T   T
  0.2858437801306064  0.0207692933561068  0.5990748608776717   T   T   T
  0.1982673906936882  0.1602472412424386  0.6146192997559362   T   T   T
  0.3789303757086484  0.3100378484947647  0.6493982366758135   T   T   T
  0.3956403879591430  0.0567159117613716  0.6637581299922488   T   T   T
  0.4908497354042874  0.2212721086476426  0.6185837774636096   T   T   T
  0.4715872529816760  0.4750904298641427  0.6046416957113003   T   T   T
  0.0950816457840234  0.1819508770041141  0.6919530176585144   T   T   T
  0.0185877036158416  0.3336040574761502  0.7019987412472709   T   T   T
  0.3103935393001228  0.3882944649996540  0.7074950194005313   T   T   T
  0.2958498343050517  0.1483222042140139  0.7000467989007516   T   T   T
  0.1193931745138030  0.5008834736986287  0.4056640401745284   F   F   F
  0.2180497310774996  0.8747924407851428  0.3908284319638753   F   F   F
  0.2389180210696367  0.6380119963400261  0.3482289235636813   F   F   F
  0.4193983372623364  0.7985734810897327  0.3856431106919516   F   F   F
  0.4443952151048407  0.5522186026277822  0.3981871098706549   F   F   F
  0.0375694151929977  0.7142309567735765  0.3534142285107791   F   F   F
  0.0125725363577729  0.9605858344973797  0.3408702296400961   F   F   F
  0.4399088063320208  0.6724966772816551  0.4931155584191453   T   T   T
  0.0370389871525845  0.5457272668157813  0.4778093244405781   F   F   F
  0.1565637981132113  0.6828557894571787  0.4203741915049051   F   F   F
  0.0579072247187398  0.8089467828801915  0.4352097997155582   F   F   F
  0.2383875932173822  0.9695083060131608  0.4726240031686544   F   F   F
  0.2640192999745283  0.7231226152643931  0.4861315173387217   T   T   T
  0.3565586551218374  0.8851657433137490  0.4403951209874819   F   F   F
  0.3315617767829693  0.6315206214066222  0.4278511218087786   F   F   F
  0.2640633035312792  0.8442673541283163  0.5802248482437061   T   T   T
  0.3540306743324454  0.7091563644551809  0.5674956846275778   T   T   T
  0.4726235493155719  0.8526702566192695  0.5087648047360329   T   T   T
  0.3779964016717524  0.9838081944602679  0.5242181447212425   T   T   T
  0.0593568118963655  0.6409987754041022  0.5619996524398213   T   T   T
  0.0799493494992578  0.8897689678502885  0.5742254792688236   T   T   T
  0.1744471794807697  0.5548370911645454  0.5293569865131534   T   T   T
  0.1512856874989579  0.8031549494892096  0.5159026176353784   T   T   T
  0.0887654685025961  0.5148607543190579  0.6677070497790256   T   T   T
  0.1694377272490657  0.8671580942434284  0.6536708363896350   T   T   T
  0.2858564826178128  0.5207294443073126  0.5990996801601395   T   T   T
  0.1982713748831502  0.6601419573938382  0.6147760885646614   T   T   T
  0.3789723462415114  0.8101117329130358  0.6494306436583414   T   T   T
  0.3956557962304582  0.5566874632733109  0.6637715825121941   T   T   T
  0.4910015454300447  0.7213783665357567  0.6186676805140883   T   T   T
  0.4716001578824258  0.9751652296295160  0.6046241498128141   T   T   T
  0.0950596052937226  0.6819395731774445  0.6919873016550595   T   T   T
  0.0186123815966622  0.8337020767027578  0.7020240288646648   T   T   T
  0.3103676587804757  0.8883133440476582  0.7075149133532342   T   T   T
  0.2959065240057209  0.6483468329796971  0.7000738803163692   T   T   T
  0.6193931743256371  0.0008834740676988  0.4056640401745284   F   F   F
  0.7180497315738634  0.3747924411542130  0.3908284319638753   F   F   F
  0.7389180208814707  0.1380119967090963  0.3482289235636813   F   F   F
  0.9193983367659726  0.2985734807206626  0.3856431106919516   F   F   F
  0.9443952156011974  0.0522186029968523  0.3981871098706549   F   F   F
  0.5375694146966410  0.2142309564045064  0.3534142285107791   F   F   F
  0.5125725368541296  0.4605858348664498  0.3408702296400961   F   F   F
  0.9397288482795233  0.1724413772103836  0.4931319549005269   T   T   T
  0.5370389876489483  0.0457272671848514  0.4778093244405781   F   F   F
  0.6565637976168475  0.1828557890881086  0.4203741915049051   F   F   F
  0.5579072245305809  0.3089467832492616  0.4352097997155582   F   F   F
  0.7383875930292234  0.4695083063822310  0.4726240031686544   F   F   F
  0.7633844718644482  0.2231534286584207  0.4851680020393374   F   F   F
  0.8565586546254735  0.3851657429446789  0.4403951209874819   F   F   F
  0.8315617765948033  0.1315206217756923  0.4278511218087786   F   F   F
  0.7641092985299532  0.3441856581911727  0.5801814985262865   T   T   T
  0.8539097957713970  0.2091448422323252  0.5673575913601938   T   T   T
  0.9723456778172803  0.3525619684363723  0.5088032698294193   T   T   T
  0.8779878451360918  0.4838903095516799  0.5242161810488134   T   T   T
  0.5594454194971089  0.1410483768575027  0.5619247282349689   T   T   T
  0.5798968035658466  0.3896372467736611  0.5742326224035237   T   T   T
  0.6747176276108244  0.0551691362278221  0.5292971767008521   T   T   T
  0.6513846995428448  0.3031137822326673  0.5159083716342291   T   T   T
  0.5889306214739700  0.0149783952133584  0.6676504378209493   T   T   T
  0.6693969337324529  0.3670587704590199  0.6536364924002043   T   T   T
  0.7858427507638985  0.0207700865931775  0.5990752687042309   T   T   T
  0.6982684621041736  0.1602461753647303  0.6146193317885397   T   T   T
  0.8789304826390999  0.3100365865949209  0.6493987502527209   T   T   T
  0.8956417902389665  0.0567176939768423  0.6637585233242009   T   T   T
  0.9908500884639092  0.2212727327885142  0.6185841222635821   T   T   T
  0.9715867705278958  0.4750896549585923  0.6046420325823419   T   T   T
  0.5950819885339091  0.1819492725993216  0.6919526840358010   T   T   T
  0.5185848263541267  0.3336035905172260  0.7019985948713023   T   T   T
  0.8103939465475594  0.3882944103241085  0.7074948102560152   T   T   T
  0.7958499157797094  0.1483216058012959  0.7000463939946614   T   T   T
  0.6193931745138030  0.5008834736986287  0.4056640401745284   F   F   F
  0.7180497310774996  0.8747924407851428  0.3908284319638753   F   F   F
  0.7389180210696367  0.6380119963400261  0.3482289235636813   F   F   F
  0.9193983372623364  0.7985734810897327  0.3856431106919516   F   F   F
  0.9443952157893634  0.5522186026277822  0.3981871098706549   F   F   F
  0.5375694151929977  0.7142309567735765  0.3534142285107791   F   F   F
  0.5125725363577729  0.9605858344973797  0.3408702296400961   F   F   F
  0.9399073890293174  0.6724971588652506  0.4931156167532277   T   T   T
  0.5370389871525845  0.5457272668157813  0.4778093244405781   F   F   F
  0.6565637981132113  0.6828557894571787  0.4203741915049051   F   F   F
  0.5579072247187398  0.8089467828801915  0.4352097997155582   F   F   F
  0.7383875932173822  0.9695083060131608  0.4726240031686544   F   F   F
  0.7640182902619587  0.7231217527009692  0.4861309942192697   T   T   T
  0.8565586551218374  0.8851657433137490  0.4403951209874819   F   F   F
  0.8315617767829693  0.6315206214066222  0.4278511218087786   F   F   F
  0.7640618600156467  0.8442664503729287  0.5802246977684278   T   T   T
  0.8540301298947394  0.7091553992988626  0.5674951733718946   T   T   T
  0.9726225496770973  0.8526693215824703  0.5087646151504656   T   T   T
  0.8779963603173866  0.9838083305941936  0.5242181565859287   T   T   T
  0.5593571176668916  0.6409989859614109  0.5619995483473564   T   T   T
  0.5799494922699999  0.8897692855229196  0.5742255910241260   T   T   T
  0.6744468016112339  0.5548368863840586  0.5293568560087831   T   T   T
  0.6512861806778233  0.8031552352384930  0.5159022443393620   T   T   T
  0.5887649373999090  0.5148617102785632  0.6677067535465395   T   T   T
  0.6694366189494331  0.8671570010269956  0.6536701729211204   T   T   T
  0.7858543930608164  0.5207282632483029  0.5990994825096742   T   T   T
  0.6982704771016556  0.6601412659142289  0.6147761345413307   T   T   T
  0.8789725949030043  0.8101115882676995  0.6494306001371922   T   T   T
  0.8956564573778968  0.5566878001863820  0.6637714212001764   T   T   T
  0.9910020417540139  0.7213782989727390  0.6186674171533934   T   T   T
  0.9715994563317710  0.9751653242396053  0.6046243514540178   T   T   T
  0.5950581635005410  0.6819388053649388  0.6919874587826859   T   T   T
  0.5186085824770934  0.8337003302129914  0.7020238897707571   T   T   T
  0.8103687466524722  0.8883142970226443  0.7075147261123577   T   T   T
  0.7959068882732507  0.6483470308442084  0.7000734469696795   T   T   T
  0.8732978156852482  0.0208461682730885  0.3276607573709143   F   F   F
  0.8733185305434503  0.5209257526346818  0.3276607573709143   F   F   F
  0.3732503670912166  0.5209257526346818  0.3276607573709143   F   F   F
  0.3732296522330074  0.0208461682730885  0.3276607573709143   F   F   F
 
  0.00000000E+00  0.00000000E+00  0.00000000E+00
  0.00000000E+00  0.00000000E+00  0.00000000E+00
  0.00000000E+00  0.00000000E+00  0.00000000E+00
  0.00000000E+00  0.00000000E+00  0.00000000E+00
  0.00000000E+00  0.00000000E+00  0.00000000E+00
  0.00000000E+00  0.00000000E+00  0.00000000E+00
  0.00000000E+00  0.00000000E+00  0.00000000E+00
  0.00000000E+00  0.00000000E+00  0.00000000E+00
  0.00000000E+00  0.00000000E+00  0.00000000E+00
  0.00000000E+00  0.00000000E+00  0.00000000E+00
  0.00000000E+00  0.00000000E+00  0.00000000E+00
  0.00000000E+00  0.00000000E+00  0.00000000E+00
  0.00000000E+00  0.00000000E+00  0.00000000E+00
  0.00000000E+00  0.00000000E+00  0.00000000E+00
  0.00000000E+00  0.00000000E+00  0.00000000E+00
  0.00000000E+00  0.00000000E+00  0.00000000E+00
  0.00000000E+00  0.00000000E+00  0.00000000E+00
  0.00000000E+00  0.00000000E+00  0.00000000E+00
  0.00000000E+00  0.00000000E+00  0.00000000E+00
  0.00000000E+00  0.00000000E+00  0.00000000E+00
  0.00000000E+00  0.00000000E+00  0.00000000E+00
  0.00000000E+00  0.00000000E+00  0.00000000E+00
  0.00000000E+00  0.00000000E+00  0.00000000E+00
  0.00000000E+00  0.00000000E+00  0.00000000E+00
  0.00000000E+00  0.00000000E+00  0.00000000E+00
  0.00000000E+00  0.00000000E+00  0.00000000E+00
  0.00000000E+00  0.00000000E+00  0.00000000E+00
  0.00000000E+00  0.00000000E+00  0.00000000E+00
  0.00000000E+00  0.00000000E+00  0.00000000E+00
  0.00000000E+00  0.00000000E+00  0.00000000E+00
  0.00000000E+00  0.00000000E+00  0.00000000E+00
  0.00000000E+00  0.00000000E+00  0.00000000E+00
  0.00000000E+00  0.00000000E+00  0.00000000E+00
  0.00000000E+00  0.00000000E+00  0.00000000E+00
  0.00000000E+00  0.00000000E+00  0.00000000E+00
  0.00000000E+00  0.00000000E+00  0.00000000E+00
  0.00000000E+00  0.00000000E+00  0.00000000E+00
  0.00000000E+00  0.00000000E+00  0.00000000E+00
  0.00000000E+00  0.00000000E+00  0.00000000E+00
  0.00000000E+00  0.00000000E+00  0.00000000E+00
  0.00000000E+00  0.00000000E+00  0.00000000E+00
  0.00000000E+00  0.00000000E+00  0.00000000E+00
  0.00000000E+00  0.00000000E+00  0.00000000E+00
  0.00000000E+00  0.00000000E+00  0.00000000E+00
  0.00000000E+00  0.00000000E+00  0.00000000E+00
  0.00000000E+00  0.00000000E+00  0.00000000E+00
  0.00000000E+00  0.00000000E+00  0.00000000E+00
  0.00000000E+00  0.00000000E+00  0.00000000E+00
  0.00000000E+00  0.00000000E+00  0.00000000E+00
  0.00000000E+00  0.00000000E+00  0.00000000E+00
  0.00000000E+00  0.00000000E+00  0.00000000E+00
  0.00000000E+00  0.00000000E+00  0.00000000E+00
  0.00000000E+00  0.00000000E+00  0.00000000E+00
  0.00000000E+00  0.00000000E+00  0.00000000E+00
  0.00000000E+00  0.00000000E+00  0.00000000E+00
  0.00000000E+00  0.00000000E+00  0.00000000E+00
  0.00000000E+00  0.00000000E+00  0.00000000E+00
  0.00000000E+00  0.00000000E+00  0.00000000E+00
  0.00000000E+00  0.00000000E+00  0.00000000E+00
  0.00000000E+00  0.00000000E+00  0.00000000E+00
  0.00000000E+00  0.00000000E+00  0.00000000E+00
  0.00000000E+00  0.00000000E+00  0.00000000E+00
  0.00000000E+00  0.00000000E+00  0.00000000E+00
  0.00000000E+00  0.00000000E+00  0.00000000E+00
  0.00000000E+00  0.00000000E+00  0.00000000E+00
  0.00000000E+00  0.00000000E+00  0.00000000E+00
  0.00000000E+00  0.00000000E+00  0.00000000E+00
  0.00000000E+00  0.00000000E+00  0.00000000E+00
  0.00000000E+00  0.00000000E+00  0.00000000E+00
  0.00000000E+00  0.00000000E+00  0.00000000E+00
  0.00000000E+00  0.00000000E+00  0.00000000E+00
  0.00000000E+00  0.00000000E+00  0.00000000E+00
  0.00000000E+00  0.00000000E+00  0.00000000E+00
  0.00000000E+00  0.00000000E+00  0.00000000E+00
  0.00000000E+00  0.00000000E+00  0.00000000E+00
  0.00000000E+00  0.00000000E+00  0.00000000E+00
  0.00000000E+00  0.00000000E+00  0.00000000E+00
  0.00000000E+00  0.00000000E+00  0.00000000E+00
  0.00000000E+00  0.00000000E+00  0.00000000E+00
  0.00000000E+00  0.00000000E+00  0.00000000E+00
  0.00000000E+00  0.00000000E+00  0.00000000E+00
  0.00000000E+00  0.00000000E+00  0.00000000E+00
  0.00000000E+00  0.00000000E+00  0.00000000E+00
  0.00000000E+00  0.00000000E+00  0.00000000E+00
  0.00000000E+00  0.00000000E+00  0.00000000E+00
  0.00000000E+00  0.00000000E+00  0.00000000E+00
  0.00000000E+00  0.00000000E+00  0.00000000E+00
  0.00000000E+00  0.00000000E+00  0.00000000E+00
  0.00000000E+00  0.00000000E+00  0.00000000E+00
  0.00000000E+00  0.00000000E+00  0.00000000E+00
  0.00000000E+00  0.00000000E+00  0.00000000E+00
  0.00000000E+00  0.00000000E+00  0.00000000E+00
  0.00000000E+00  0.00000000E+00  0.00000000E+00
  0.00000000E+00  0.00000000E+00  0.00000000E+00
  0.00000000E+00  0.00000000E+00  0.00000000E+00
  0.00000000E+00  0.00000000E+00  0.00000000E+00
  0.00000000E+00  0.00000000E+00  0.00000000E+00
  0.00000000E+00  0.00000000E+00  0.00000000E+00
  0.00000000E+00  0.00000000E+00  0.00000000E+00
  0.00000000E+00  0.00000000E+00  0.00000000E+00
  0.00000000E+00  0.00000000E+00  0.00000000E+00
  0.00000000E+00  0.00000000E+00  0.00000000E+00
  0.00000000E+00  0.00000000E+00  0.00000000E+00
  0.00000000E+00  0.00000000E+00  0.00000000E+00
  0.00000000E+00  0.00000000E+00  0.00000000E+00
  0.00000000E+00  0.00000000E+00  0.00000000E+00
  0.00000000E+00  0.00000000E+00  0.00000000E+00
  0.00000000E+00  0.00000000E+00  0.00000000E+00
  0.00000000E+00  0.00000000E+00  0.00000000E+00
  0.00000000E+00  0.00000000E+00  0.00000000E+00
  0.00000000E+00  0.00000000E+00  0.00000000E+00
  0.00000000E+00  0.00000000E+00  0.00000000E+00
  0.00000000E+00  0.00000000E+00  0.00000000E+00
  0.00000000E+00  0.00000000E+00  0.00000000E+00
  0.00000000E+00  0.00000000E+00  0.00000000E+00
  0.00000000E+00  0.00000000E+00  0.00000000E+00
  0.00000000E+00  0.00000000E+00  0.00000000E+00
  0.00000000E+00  0.00000000E+00  0.00000000E+00
  0.00000000E+00  0.00000000E+00  0.00000000E+00
  0.00000000E+00  0.00000000E+00  0.00000000E+00
  0.00000000E+00  0.00000000E+00  0.00000000E+00
  0.00000000E+00  0.00000000E+00  0.00000000E+00
  0.00000000E+00  0.00000000E+00  0.00000000E+00
  0.00000000E+00  0.00000000E+00  0.00000000E+00
  0.00000000E+00  0.00000000E+00  0.00000000E+00
  0.00000000E+00  0.00000000E+00  0.00000000E+00
  0.00000000E+00  0.00000000E+00  0.00000000E+00
  0.00000000E+00  0.00000000E+00  0.00000000E+00
  0.00000000E+00  0.00000000E+00  0.00000000E+00
  0.00000000E+00  0.00000000E+00  0.00000000E+00
  0.00000000E+00  0.00000000E+00  0.00000000E+00
  0.00000000E+00  0.00000000E+00  0.00000000E+00
  0.00000000E+00  0.00000000E+00  0.00000000E+00
  0.00000000E+00  0.00000000E+00  0.00000000E+00
  0.00000000E+00  0.00000000E+00  0.00000000E+00
  0.00000000E+00  0.00000000E+00  0.00000000E+00
  0.00000000E+00  0.00000000E+00  0.00000000E+00
  0.00000000E+00  0.00000000E+00  0.00000000E+00
  0.00000000E+00  0.00000000E+00  0.00000000E+00
  0.00000000E+00  0.00000000E+00  0.00000000E+00
  0.00000000E+00  0.00000000E+00  0.00000000E+00
  0.00000000E+00  0.00000000E+00  0.00000000E+00
  0.00000000E+00  0.00000000E+00  0.00000000E+00
  0.00000000E+00  0.00000000E+00  0.00000000E+00
  0.00000000E+00  0.00000000E+00  0.00000000E+00
  0.00000000E+00  0.00000000E+00  0.00000000E+00
  0.00000000E+00  0.00000000E+00  0.00000000E+00
  0.00000000E+00  0.00000000E+00  0.00000000E+00
  0.00000000E+00  0.00000000E+00  0.00000000E+00
  0.00000000E+00  0.00000000E+00  0.00000000E+00
  0.00000000E+00  0.00000000E+00  0.00000000E+00
  0.00000000E+00  0.00000000E+00  0.00000000E+00
  0.00000000E+00  0.00000000E+00  0.00000000E+00
  0.00000000E+00  0.00000000E+00  0.00000000E+00
  0.00000000E+00  0.00000000E+00  0.00000000E+00
  0.00000000E+00  0.00000000E+00  0.00000000E+00
  0.00000000E+00  0.00000000E+00  0.00000000E+00
  0.00000000E+00  0.00000000E+00  0.00000000E+00
  0.00000000E+00  0.00000000E+00  0.00000000E+00
  0.00000000E+00  0.00000000E+00  0.00000000E+00
  0.00000000E+00  0.00000000E+00  0.00000000E+00
  0.00000000E+00  0.00000000E+00  0.00000000E+00
  0.00000000E+00  0.00000000E+00  0.00000000E+00
  0.00000000E+00  0.00000000E+00  0.00000000E+00
  0.00000000E+00  0.00000000E+00  0.00000000E+00
  0.00000000E+00  0.00000000E+00  0.00000000E+00
  0.00000000E+00  0.00000000E+00  0.00000000E+00
  0.00000000E+00  0.00000000E+00  0.00000000E+00
  0.00000000E+00  0.00000000E+00  0.00000000E+00
  0.00000000E+00  0.00000000E+00  0.00000000E+00
  0.00000000E+00  0.00000000E+00  0.00000000E+00
  0.00000000E+00  0.00000000E+00  0.00000000E+00
  0.00000000E+00  0.00000000E+00  0.00000000E+00
  0.00000000E+00  0.00000000E+00  0.00000000E+00
  0.00000000E+00  0.00000000E+00  0.00000000E+00
  0.00000000E+00  0.00000000E+00  0.00000000E+00
  0.00000000E+00  0.00000000E+00  0.00000000E+00
  0.00000000E+00  0.00000000E+00  0.00000000E+00
  0.00000000E+00  0.00000000E+00  0.00000000E+00
  0.00000000E+00  0.00000000E+00  0.00000000E+00
  0.00000000E+00  0.00000000E+00  0.00000000E+00
  0.00000000E+00  0.00000000E+00  0.00000000E+00
  0.00000000E+00  0.00000000E+00  0.00000000E+00
  0.00000000E+00  0.00000000E+00  0.00000000E+00
  0.00000000E+00  0.00000000E+00  0.00000000E+00
  0.00000000E+00  0.00000000E+00  0.00000000E+00
  0.00000000E+00  0.00000000E+00  0.00000000E+00
  0.00000000E+00  0.00000000E+00  0.00000000E+00
  0.00000000E+00  0.00000000E+00  0.00000000E+00
  0.00000000E+00  0.00000000E+00  0.00000000E+00
  0.00000000E+00  0.00000000E+00  0.00000000E+00
  0.00000000E+00  0.00000000E+00  0.00000000E+00
  0.00000000E+00  0.00000000E+00  0.00000000E+00
  0.00000000E+00  0.00000000E+00  0.00000000E+00
  0.00000000E+00  0.00000000E+00  0.00000000E+00
  0.00000000E+00  0.00000000E+00  0.00000000E+00
  0.00000000E+00  0.00000000E+00  0.00000000E+00
  0.00000000E+00  0.00000000E+00  0.00000000E+00
  0.00000000E+00  0.00000000E+00  0.00000000E+00
  0.00000000E+00  0.00000000E+00  0.00000000E+00
  0.00000000E+00  0.00000000E+00  0.00000000E+00
  0.00000000E+00  0.00000000E+00  0.00000000E+00
  0.00000000E+00  0.00000000E+00  0.00000000E+00
  0.00000000E+00  0.00000000E+00  0.00000000E+00
  0.00000000E+00  0.00000000E+00  0.00000000E+00
  0.00000000E+00  0.00000000E+00  0.00000000E+00
  0.00000000E+00  0.00000000E+00  0.00000000E+00
  0.00000000E+00  0.00000000E+00  0.00000000E+00
  0.00000000E+00  0.00000000E+00  0.00000000E+00
  0.00000000E+00  0.00000000E+00  0.00000000E+00
  0.00000000E+00  0.00000000E+00  0.00000000E+00
  0.00000000E+00  0.00000000E+00  0.00000000E+00
  0.00000000E+00  0.00000000E+00  0.00000000E+00
  0.00000000E+00  0.00000000E+00  0.00000000E+00
  0.00000000E+00  0.00000000E+00  0.00000000E+00
  0.00000000E+00  0.00000000E+00  0.00000000E+00
  0.00000000E+00  0.00000000E+00  0.00000000E+00
  0.00000000E+00  0.00000000E+00  0.00000000E+00
  0.00000000E+00  0.00000000E+00  0.00000000E+00
  0.00000000E+00  0.00000000E+00  0.00000000E+00
  0.00000000E+00  0.00000000E+00  0.00000000E+00
  0.00000000E+00  0.00000000E+00  0.00000000E+00
  0.00000000E+00  0.00000000E+00  0.00000000E+00
  0.00000000E+00  0.00000000E+00  0.00000000E+00