Hf  O  F  H                             
   1.00000000000000     
    14.6106902099999996    0.0000000000000000    0.0000000000000000
    -6.0999520900000004   13.5497369200000009    0.0000000000000000
     0.0000000000000000    0.0000000000000000   32.4676209000000000
   Hf   O    F    H 
    80   160    16    16
Selective dynamics
Direct
  0.1048163482780637  0.1061689485554993  0.3670806074368045   F   F   F
  0.3732623612619577  0.1389233751263106  0.3650114703045588   F   F   F
  0.3737743268675473  0.4225943611162037  0.3725879111148558   F   F   F
  0.0744046443694870  0.3629124597055267  0.3752116716380627   F   F   F
  0.4129342004055374  0.2772409621071787  0.4538525553315154   F   F   F
  0.1984387749950471  0.3145780215635341  0.4495369052433418   F   F   F
  0.1809177729260796  0.0772327211353740  0.4589466093279384   F   F   F
  0.3999867945161597  0.0425280634895131  0.4631158645196578   F   F   F
  0.2330362736705780  0.4462873388393405  0.5411192918665648   F   F   F
  0.0165350607331476  0.4845897707658224  0.5388003781022306   F   F   F
  0.5009418603962672  0.2506439939056762  0.5456773192149740   F   F   F
  0.2175425423202526  0.2125169762336583  0.5479620080509164   F   F   F
  0.0542165696552310  0.1200223969079042  0.6296584518869671   T   T   T
  0.3337792917667878  0.1536906595898199  0.6244118294657011   T   T   T
  0.3168856906076380  0.4194647572916045  0.6330537929852779   T   T   T
  0.0379100794252625  0.3839832641155200  0.6357828340330028   T   T   T
  0.3675297694311579  0.2837756347116996  0.7103486745052615   T   T   T
  0.1521325638552384  0.3303030698219241  0.7146206457672413   T   T   T
  0.1280505885585036  0.0805696103531840  0.7223858474017274   T   T   T
  0.3574815356180020  0.0496609644118377  0.7244028979208448   T   T   T
  0.1048163482439719  0.6061689492935187  0.3670806074368045   F   F   F
  0.3732623445892003  0.6389233360111604  0.3650114703045588   F   F   F
  0.3737743272097589  0.9225943611162037  0.3725879111148558   F   F   F
  0.0744046077524629  0.8629124597055267  0.3752116716380627   F   F   F
  0.4129341844172032  0.7772409229920285  0.4538525553315154   F   F   F
  0.1984387746528355  0.8145780215635341  0.4495369052433418   F   F   F
  0.1809177725838680  0.5772327211353740  0.4589466093279384   F   F   F
  0.3999867578991356  0.5425280634895131  0.4631158645196578   F   F   F
  0.2330362380461040  0.9462873395773670  0.5411192918665648   F   F   F
  0.0165350603909360  0.9845897707658224  0.5388003781022306   F   F   F
  0.5009418600540485  0.7506439939056762  0.5456773192149740   F   F   F
  0.2175425419780339  0.7125169762336583  0.5479620080509164   F   F   F
  0.0542111700962807  0.6200275514248975  0.6296489317463541   T   T   T
  0.3337766960073157  0.6536759328237781  0.6244079388834173   T   T   T
  0.3168694847945437  0.9194720700497689  0.6330492433844757   T   T   T
  0.0378795048287671  0.8839836912020386  0.6357798578574916   T   T   T
  0.3675068243182929  0.7837606316240001  0.7103520070736324   T   T   T
  0.1521138881416269  0.8302878445075482  0.7146157993997236   T   T   T
  0.1280982428983330  0.5805771227654590  0.7223635985084972   T   T   T
  0.3575501132357718  0.5496416206272203  0.7244248993158628   T   T   T
  0.6048163664154629  0.1061689485554993  0.3670806074368045   F   F   F
  0.8732623793993639  0.1389233751263106  0.3650114703045588   F   F   F
  0.8737743087301411  0.4225943611162037  0.3725879111148558   F   F   F
  0.5744046262320808  0.3629124597055267  0.3752116716380627   F   F   F
  0.9129342185429365  0.2772409621071787  0.4538525553315154   F   F   F
  0.6984387568576409  0.3145780215635341  0.4495369052433418   F   F   F
  0.6809177910634858  0.0772327211353740  0.4589466093279384   F   F   F
  0.8999867763787535  0.0425280634895131  0.4631158645196578   F   F   F
  0.7330362555331718  0.4462873388393405  0.5411192918665648   F   F   F
  0.5165350788705538  0.4845897707658224  0.5388003781022306   F   F   F
  0.0009418785336663  0.2506439939056762  0.5456773192149740   F   F   F
  0.7175425241828464  0.2125169762336583  0.5479620080509164   F   F   F
  0.5537338507264593  0.1198722023246187  0.6293291985561146   T   T   T
  0.8339029006832479  0.1537532578926852  0.6243711328633945   T   T   T
  0.8179503515295701  0.4197760070829248  0.6328679715739025   T   T   T
  0.5375787025788008  0.3841208460316981  0.6356574634238642   T   T   T
  0.8670481074231136  0.2830757722113501  0.7104544675213095   T   T   T
  0.6533527600414278  0.3311273550330841  0.7137326951045877   T   T   T
  0.6280705463349591  0.0812815135729851  0.7218679776915119   T   T   T
  0.8582475646448517  0.0499806149153994  0.7244434496614542   T   T   T
  0.6048163663813710  0.6061689492935187  0.3670806074368045   F   F   F
  0.8732623627266065  0.6389233360111604  0.3650114703045588   F   F   F
  0.8737743090723527  0.9225943611162037  0.3725879111148558   F   F   F
  0.5744046258898692  0.8629124597055267  0.3752116716380627   F   F   F
  0.9129341662797970  0.7772409229920285  0.4538525553315154   F   F   F
  0.6984387565154293  0.8145780215635341  0.4495369052433418   F   F   F
  0.6809177907212671  0.5772327211353740  0.4589466093279384   F   F   F
  0.8999867760365419  0.5425280634895131  0.4631158645196578   F   F   F
  0.7330362561835102  0.9462873395773670  0.5411192918665648   F   F   F
  0.5165350422535298  0.9845897707658224  0.5388003781022306   F   F   F
  0.0009418419166423  0.7506439939056762  0.5456773192149740   F   F   F
  0.7175425238406277  0.7125169762336583  0.5479620080509164   F   F   F
  0.5537236973529648  0.6198646099778363  0.6293274193838605   T   T   T
  0.8338966627620628  0.6537488753204047  0.6243698690743833   T   T   T
  0.8179366460164066  0.9197863020589087  0.6328694388419491   T   T   T
  0.5375750237504444  0.8841232691528720  0.6356519306227810   T   T   T
  0.8670235838577016  0.7830643755868625  0.7104521788298677   T   T   T
  0.6533377043077476  0.8311027001129492  0.7137360981621454   T   T   T
  0.6281694798248452  0.5812868622759314  0.7218434691334820   T   T   T
  0.8583076556191088  0.5499890304355610  0.7244467184251824   T   T   T
  0.1288949438227718  0.0023484482531160  0.4055195577942712   F   F   F
  0.2171202666773340  0.3655754167956218  0.3861183836848383   F   F   F
  0.2422423258657034  0.1476133695295374  0.3459273718759022   F   F   F
  0.4156474651992070  0.2981851794507051  0.3852004440830470   F   F   F
  0.4483239664366039  0.0539867416112187  0.4013417443530614   F   F   F
  0.0299853079393912  0.2126836445618636  0.3518312443090039   F   F   F
  0.0187047650824397  0.4596688007873126  0.3441004418035476   F   F   F
  0.4407067360639800  0.1746064507354319  0.4921106331816247   F   F   F
  0.0377163536368030  0.0445207962015530  0.4784636998764498   F   F   F
  0.1535412084935999  0.1806685489506918  0.4213457166182479   F   F   F
  0.0591853102326070  0.3140539111662690  0.4348011568349932   F   F   F
  0.2394803091811184  0.4691793816761418  0.4727388595325124   F   F   F
  0.2650519433922724  0.2243375790944881  0.4843499474579644   F   F   F
  0.3566567922348511  0.3873940024069498  0.4403535575654089   F   F   F
  0.3328108427282856  0.1313181029643218  0.4278359404830923   F   F   F
  0.2581866711651202  0.3423726168552079  0.5795646223034439   F   F   F
  0.3560439348708542  0.2157748010357707  0.5635848618646406   F   F   F
  0.4760509698249393  0.3547283002155908  0.5072056726829643   F   F   F
  0.3780098865293127  0.4813491730878567  0.5232635452510195   F   F   F
  0.0572094665586604  0.1406956991309585  0.5591678785740655   F   F   F
  0.0828115205656985  0.3944539472283708  0.5727661560197674   F   F   F
  0.1768614834644140  0.0563424554666554  0.5276318489661804   F   F   F
  0.1512854977469189  0.3024251718091691  0.5140239261879529   F   F   F
  0.0793685507282363  0.0148965348163508  0.6657478570058245   T   T   T
  0.1719318171877664  0.3777241571121980  0.6504274274939845   T   T   T
  0.2920492879443709  0.0227828387548501  0.5948603499911252   T   T   T
  0.1966679947056842  0.1532152846903568  0.6091916994257227   T   T   T
  0.3765696731861362  0.3113224973746877  0.6454855504458009   T   T   T
  0.3993700442002474  0.0627934450078284  0.6600469607692917   T   T   T
  0.4933379154422243  0.2263441703936427  0.6148428335966419   T   T   T
  0.4704883938977770  0.4747771638454192  0.6022917391362618   T   T   T
  0.4023117785640532  0.1919734731793742  0.7519479457249526   T   T   T
  0.4887212047936640  0.0419005093131587  0.7398876573943244   T   T   T
  0.1122065016809595  0.1927587866680743  0.6847890444547887   T   T   T
  0.0138153592784710  0.3293625876840745  0.6975020041051040   T   T   T
  0.1991416197033623  0.4809064818639688  0.7228616888102538   T   T   T
  0.2257673728412004  0.2352666263053672  0.7472639274826454   T   T   T
  0.3153545622042280  0.3946534530453679  0.7031515498398414   T   T   T
  0.2930113500004054  0.1482976588136523  0.6880829511055673   T   T   T
  0.1288949434805602  0.5023484482531160  0.4055195577942712   F   F   F
  0.2171202300603028  0.8655754167956218  0.3861183836848383   F   F   F
  0.2422423265160418  0.6476133702675639  0.3459273718759022   F   F   F
  0.4156474648569883  0.7981851794507051  0.3852004440830470   F   F   F
  0.4483239667788155  0.5539867416112187  0.4013417443530614   F   F   F
  0.0299853079052994  0.7126836452998830  0.3518312443090039   F   F   F
  0.0187047647402281  0.9596688007873126  0.3441004418035476   F   F   F
  0.4407066994469560  0.6746064507354319  0.4921106331816247   F   F   F
  0.0377163539790217  0.5445207962015530  0.4784636998764498   F   F   F
  0.1535412081513883  0.6806685489506918  0.4213457166182479   F   F   F
  0.0591853098903883  0.8140539111662690  0.4348011568349932   F   F   F
  0.2394803088388997  0.9691793816761418  0.4727388595325124   F   F   F
  0.2650519437344911  0.7243375790944881  0.4843499474579644   F   F   F
  0.3566567918926324  0.8873940024069498  0.4403535575654089   F   F   F
  0.3328108423860741  0.6313181029643218  0.4278359404830923   F   F   F
  0.2581866708229015  0.8423726168552079  0.5795646223034439   F   F   F
  0.3560439345286426  0.7157748010357707  0.5635848618646406   F   F   F
  0.4760509541447320  0.8547282618384600  0.5072056726829643   F   F   F
  0.3780098499122886  0.9813491730878567  0.5232635452510195   F   F   F
  0.0572094306260666  0.6406956991309585  0.5591678785740655   F   F   F
  0.0828115209079101  0.8944539472283708  0.5727661560197674   F   F   F
  0.1768614841147524  0.5563424562046748  0.5276318489661804   F   F   F
  0.1512854611298948  0.8024251718091691  0.5140239261879529   F   F   F
  0.0794298440284811  0.5149263747593584  0.6657254643217142   T   T   T
  0.1719330730843165  0.8777575766542191  0.6504298728671603   T   T   T
  0.2920417044815970  0.5227979515061563  0.5948637294707039   T   T   T
  0.1966769571568961  0.6532313893405729  0.6091859858667830   T   T   T
  0.3765683558297568  0.8113320537263622  0.6454852353947806   T   T   T
  0.3993842272835865  0.5628004654765244  0.6600419938552208   T   T   T
  0.4933366845827892  0.7263552690317892  0.6148428612691248   T   T   T
  0.4704900020170885  0.9747834851093831  0.6022938379919710   T   T   T
  0.4023086986372606  0.6919872397065063  0.7519460243416104   T   T   T
  0.4888107536110463  0.5419418829752234  0.7398785544515669   T   T   T
  0.1122652248434953  0.6927852618221002  0.6847670800953425   T   T   T
  0.0138091649595380  0.8293525085008888  0.6975096544319729   T   T   T
  0.1991233161165168  0.9808823102321188  0.7228780862472756   T   T   T
  0.2257584052203666  0.7352507808802476  0.7472685066647548   T   T   T
  0.3153301960609652  0.8946398318749726  0.7031513860125785   T   T   T
  0.2930156962864564  0.6483110360311436  0.6880797312770761   T   T   T
  0.6288949256853655  0.0023484482531160  0.4055195577942712   F   F   F
  0.7171202485399277  0.3655754167956218  0.3861183836848383   F   F   F
  0.7422423440031096  0.1476133695295374  0.3459273718759022   F   F   F
  0.9156474470618008  0.2981851794507051  0.3852004440830470   F   F   F
  0.9483239482991976  0.0539867416112187  0.4013417443530614   F   F   F
  0.5299853260767975  0.2126836445618636  0.3518312443090039   F   F   F
  0.5187047825354156  0.4596688007873126  0.3441004418035476   F   F   F
  0.9407067179265738  0.1746064507354319  0.4921106331816247   F   F   F
  0.5377163717742093  0.0445207962015530  0.4784636998764498   F   F   F
  0.6535411903561936  0.1806685489506918  0.4213457166182479   F   F   F
  0.5591852920952007  0.3140539111662690  0.4348011568349932   F   F   F
  0.7394803273185175  0.4691793816761418  0.4727388595325124   F   F   F
  0.7650519615296787  0.2243375790944881  0.4843499474579644   F   F   F
  0.8566568103722574  0.3873940024069498  0.4403535575654089   F   F   F
  0.8328108608656919  0.1313181029643218  0.4278359404830923   F   F   F
  0.7581866530277139  0.3423726168552079  0.5795646223034439   F   F   F
  0.8560439167334479  0.2157748010357707  0.5635848618646406   F   F   F
  0.9760509516875331  0.3547283002155908  0.5072056726829643   F   F   F
  0.8780098683919064  0.4813491730878567  0.5232635452510195   F   F   F
  0.5572094484212542  0.1406956991309585  0.5591678785740655   F   F   F
  0.5828115387031048  0.3944539472283708  0.5727661560197674   F   F   F
  0.6768614653270077  0.0563424554666554  0.5276318489661804   F   F   F
  0.6512854796095198  0.3024251718091691  0.5140239261879529   F   F   F
  0.5792085344916121  0.0151780546151569  0.6658191355718592   T   T   T
  0.6722068661422657  0.3785543921071023  0.6507800024021588   T   T   T
  0.7917606366859463  0.0226512818004414  0.5948701770379590   T   T   T
  0.6964010959321326  0.1530699536526264  0.6091617184187842   T   T   T
  0.8761946523659982  0.3110199482036995  0.6454089709431379   T   T   T
  0.8993499590350791  0.0628816321580960  0.6600298399596752   T   T   T
  0.9931514243481533  0.2259524389267439  0.6147763387314816   T   T   T
  0.9701553189202651  0.4747823702747665  0.6022984244568610   T   T   T
  0.9020231096366509  0.1911450668696484  0.7519156161050907   T   T   T
  0.9876063119242128  0.0397452636729843  0.7391323737299287   T   T   T
  0.6114785216746362  0.1931688026200744  0.6845336868587971   T   T   T
  0.5146543125591800  0.3302448562752677  0.6978967185523840   T   T   T
  0.6988966094826531  0.4813443605889624  0.7240034997041512   T   T   T
  0.7244517755841843  0.2340105560447925  0.7470887947889744   T   T   T
  0.8144704183711465  0.3941043907322168  0.7027780206451232   T   T   T
  0.7921240813231260  0.1479338435178453  0.6879027118346385   T   T   T
  0.6288949253431539  0.5023484482531160  0.4055195577942712   F   F   F
  0.7171202481977090  0.8655754167956218  0.3861183836848383   F   F   F
  0.7422423439690178  0.6476133702675639  0.3459273718759022   F   F   F
  0.9156474467195821  0.7981851794507051  0.3852004440830470   F   F   F
  0.9483239486414092  0.5539867416112187  0.4013417443530614   F   F   F
  0.5299853260427057  0.7126836452998830  0.3518312443090039   F   F   F
  0.5187047828776272  0.9596688007873126  0.3441004418035476   F   F   F
  0.9407067175843622  0.6746064507354319  0.4921106331816247   F   F   F
  0.5377163358416155  0.5445207962015530  0.4784636998764498   F   F   F
  0.6535411900139820  0.6806685489506918  0.4213457166182479   F   F   F
  0.5591852917529891  0.8140539111662690  0.4348011568349932   F   F   F
  0.7394802907014935  0.9691793816761418  0.4727388595325124   F   F   F
  0.7650519255970849  0.7243375790944881  0.4843499474579644   F   F   F
  0.8566568100300387  0.8873940024069498  0.4403535575654089   F   F   F
  0.8328108605234732  0.6313181029643218  0.4278359404830923   F   F   F
  0.7581866526854952  0.8423726168552079  0.5795646223034439   F   F   F
  0.8560439163912363  0.7157748010357707  0.5635848618646406   F   F   F
  0.9760509360073257  0.8547282618384600  0.5072056726829643   F   F   F
  0.8780098680496948  0.9813491730878567  0.5232635452510195   F   F   F
  0.5572094487634729  0.6406956991309585  0.5591678785740655   F   F   F
  0.5828115383608861  0.8944539472283708  0.5727661560197674   F   F   F
  0.6768614659773462  0.5563424562046748  0.5276318489661804   F   F   F
  0.6512854792673011  0.8024251718091691  0.5140239261879529   F   F   F
  0.5792596893997550  0.5151945863285586  0.6658035826097372   T   T   T
  0.6721931458464637  0.8785643648823261  0.6507812093145544   T   T   T
  0.7917587279872660  0.5226495291260542  0.5948725289396114   T   T   T
  0.6964008162584282  0.6530691872135141  0.6091549686894389   T   T   T
  0.8761832848760969  0.8110264791447719  0.6454110930876829   T   T   T
  0.8993842396108584  0.5628991645632395  0.6600166307703270   T   T   T
  0.9931482315303546  0.7259631861492731  0.6147753366979679   T   T   T
  0.9701544994689368  0.9747865011031918  0.6023004574667076   T   T   T
  0.9020422816810083  0.6911618005635577  0.7519148503495743   T   T   T
  0.9876952887446298  0.5397699557718934  0.7390988056870975   T   T   T
  0.6115224354774078  0.6932028012811333  0.6845193806887444   T   T   T
  0.5146400137077687  0.8302402783392582  0.6978948267059840   T   T   T
  0.6988515053604398  0.9813327496389292  0.7240010851660394   T   T   T
  0.7244553065750801  0.7339818930324621  0.7470995535667402   T   T   T
  0.8144342837945249  0.8940943826840138  0.7027971128486035   T   T   T
  0.7921119915860660  0.6479390555846272  0.6878960866412126   T   T   T
  0.8438790223745301  0.0134899652354292  0.3353585148273055   F   F   F
  0.8438790223750132  0.5134900652373702  0.3353585148273055   F   F   F
  0.3438790223750132  0.5134900652373702  0.3353585148273055   F   F   F
  0.3438790223745301  0.0134899652354292  0.3353585148273055   F   F   F
  0.6729512509311433  0.0629455383745360  0.7889000945789741   T   T   T
  0.6732068701526752  0.5629323214556325  0.7889396184040227   T   T   T
  0.1756580745786573  0.0672323639957002  0.7863651106193001   T   T   T
  0.1758169527356199  0.5672198055957520  0.7863896326657820   T   T   T
  0.5914069544010517  0.3054414134968557  0.7721471906550248   T   T   T
  0.5913603858764396  0.8053874517948950  0.7721472638608105   T   T   T
  0.0900757058724028  0.3000337085212910  0.7702809122223437   T   T   T
  0.0900116919717909  0.7998995011845095  0.7702803054125944   T   T   T
  0.3060800549923252  0.0144157948935322  0.7869487405493214   T   T   T
  0.3062040024025522  0.5142901220559025  0.7868918034876075   T   T   T
  0.6975357807119250  0.2737477825550403  0.8251361885546773   T   T   T
  0.6967223099371198  0.7727046101731212  0.8251903767502077   T   T   T
  0.8100339101297414  0.0113833569647605  0.7870566399413734   T   T   T
  0.8103314838776380  0.5112413174097991  0.7870069836013281   T   T   T
 -0.0370178373649720  0.0982255984172553  0.8378211658974992   T   T   T
 -0.0359606136125459  0.5947641925612431  0.8378683006250930   T   T   T
  0.7259813164850948  0.2384835272584693  0.7777625705218296   T   T   T
  0.7258532689633008  0.7382789002112516  0.7777746030147275   T   T   T
  0.2231885752945906  0.2333983975963187  0.7773681438616145   T   T   T
  0.2231692380956795  0.7333706443061391  0.7773682344052149   T   T   T
  0.4645837513574586  0.2201199280377174  0.7682821608185283   T   T   T
  0.4646106380709540  0.7201704304050794  0.7682706765385476   T   T   T
  0.9649962072189640  0.2198003471755950  0.7682738258193200   T   T   T
  0.9651941850993869  0.7199625605411625  0.7681628074412020   T   T   T
  0.2360401789417380  0.0375670879801205  0.7890391415962309   T   T   T
  0.2359684256634763  0.5375616276879009  0.7890272118263515   T   T   T
  0.6499733179662873  0.2921359043260927  0.8103453485825259   T   T   T
  0.6494405432359280  0.7914408278587413  0.8103696080582447   T   T   T
  0.7289382490226212  0.0371950841155531  0.7904248103149347   T   T   T
  0.7290939899242650  0.5371704703392812  0.7904540236530175   T   T   T
 -0.0947354292274059  0.0591084327606669  0.8220151878302193   T   T   T
 -0.0939468637407636  0.5569873644547240  0.8219459047865081   T   T   T
 
  0.00000000E+00  0.00000000E+00  0.00000000E+00
  0.00000000E+00  0.00000000E+00  0.00000000E+00
  0.00000000E+00  0.00000000E+00  0.00000000E+00
  0.00000000E+00  0.00000000E+00  0.00000000E+00
  0.00000000E+00  0.00000000E+00  0.00000000E+00
  0.00000000E+00  0.00000000E+00  0.00000000E+00
  0.00000000E+00  0.00000000E+00  0.00000000E+00
  0.00000000E+00  0.00000000E+00  0.00000000E+00
  0.00000000E+00  0.00000000E+00  0.00000000E+00
  0.00000000E+00  0.00000000E+00  0.00000000E+00
  0.00000000E+00  0.00000000E+00  0.00000000E+00
  0.00000000E+00  0.00000000E+00  0.00000000E+00
  0.00000000E+00  0.00000000E+00  0.00000000E+00
  0.00000000E+00  0.00000000E+00  0.00000000E+00
  0.00000000E+00  0.00000000E+00  0.00000000E+00
  0.00000000E+00  0.00000000E+00  0.00000000E+00
  0.00000000E+00  0.00000000E+00  0.00000000E+00
  0.00000000E+00  0.00000000E+00  0.00000000E+00
  0.00000000E+00  0.00000000E+00  0.00000000E+00
  0.00000000E+00  0.00000000E+00  0.00000000E+00
  0.00000000E+00  0.00000000E+00  0.00000000E+00
  0.00000000E+00  0.00000000E+00  0.00000000E+00
  0.00000000E+00  0.00000000E+00  0.00000000E+00
  0.00000000E+00  0.00000000E+00  0.00000000E+00
  0.00000000E+00  0.00000000E+00  0.00000000E+00
  0.00000000E+00  0.00000000E+00  0.00000000E+00
  0.00000000E+00  0.00000000E+00  0.00000000E+00
  0.00000000E+00  0.00000000E+00  0.00000000E+00
  0.00000000E+00  0.00000000E+00  0.00000000E+00
  0.00000000E+00  0.00000000E+00  0.00000000E+00
  0.00000000E+00  0.00000000E+00  0.00000000E+00
  0.00000000E+00  0.00000000E+00  0.00000000E+00
  0.00000000E+00  0.00000000E+00  0.00000000E+00
  0.00000000E+00  0.00000000E+00  0.00000000E+00
  0.00000000E+00  0.00000000E+00  0.00000000E+00
  0.00000000E+00  0.00000000E+00  0.00000000E+00
  0.00000000E+00  0.00000000E+00  0.00000000E+00
  0.00000000E+00  0.00000000E+00  0.00000000E+00
  0.00000000E+00  0.00000000E+00  0.00000000E+00
  0.00000000E+00  0.00000000E+00  0.00000000E+00
  0.00000000E+00  0.00000000E+00  0.00000000E+00
  0.00000000E+00  0.00000000E+00  0.00000000E+00
  0.00000000E+00  0.00000000E+00  0.00000000E+00
  0.00000000E+00  0.00000000E+00  0.00000000E+00
  0.00000000E+00  0.00000000E+00  0.00000000E+00
  0.00000000E+00  0.00000000E+00  0.00000000E+00
  0.00000000E+00  0.00000000E+00  0.00000000E+00
  0.00000000E+00  0.00000000E+00  0.00000000E+00
  0.00000000E+00  0.00000000E+00  0.00000000E+00
  0.00000000E+00  0.00000000E+00  0.00000000E+00
  0.00000000E+00  0.00000000E+00  0.00000000E+00
  0.00000000E+00  0.00000000E+00  0.00000000E+00
  0.00000000E+00  0.00000000E+00  0.00000000E+00
  0.00000000E+00  0.00000000E+00  0.00000000E+00
  0.00000000E+00  0.00000000E+00  0.00000000E+00
  0.00000000E+00  0.00000000E+00  0.00000000E+00
  0.00000000E+00  0.00000000E+00  0.00000000E+00
  0.00000000E+00  0.00000000E+00  0.00000000E+00
  0.00000000E+00  0.00000000E+00  0.00000000E+00
  0.00000000E+00  0.00000000E+00  0.00000000E+00
  0.00000000E+00  0.00000000E+00  0.00000000E+00
  0.00000000E+00  0.00000000E+00  0.00000000E+00
  0.00000000E+00  0.00000000E+00  0.00000000E+00
  0.00000000E+00  0.00000000E+00  0.00000000E+00
  0.00000000E+00  0.00000000E+00  0.00000000E+00
  0.00000000E+00  0.00000000E+00  0.00000000E+00
  0.00000000E+00  0.00000000E+00  0.00000000E+00
  0.00000000E+00  0.00000000E+00  0.00000000E+00
  0.00000000E+00  0.00000000E+00  0.00000000E+00
  0.00000000E+00  0.00000000E+00  0.00000000E+00
  0.00000000E+00  0.00000000E+00  0.00000000E+00
  0.00000000E+00  0.00000000E+00  0.00000000E+00
  0.00000000E+00  0.00000000E+00  0.00000000E+00
  0.00000000E+00  0.00000000E+00  0.00000000E+00
  0.00000000E+00  0.00000000E+00  0.00000000E+00
  0.00000000E+00  0.00000000E+00  0.00000000E+00
  0.00000000E+00  0.00000000E+00  0.00000000E+00
  0.00000000E+00  0.00000000E+00  0.00000000E+00
  0.00000000E+00  0.00000000E+00  0.00000000E+00
  0.00000000E+00  0.00000000E+00  0.00000000E+00
  0.00000000E+00  0.00000000E+00  0.00000000E+00
  0.00000000E+00  0.00000000E+00  0.00000000E+00
  0.00000000E+00  0.00000000E+00  0.00000000E+00
  0.00000000E+00  0.00000000E+00  0.00000000E+00
  0.00000000E+00  0.00000000E+00  0.00000000E+00
  0.00000000E+00  0.00000000E+00  0.00000000E+00
  0.00000000E+00  0.00000000E+00  0.00000000E+00
  0.00000000E+00  0.00000000E+00  0.00000000E+00
  0.00000000E+00  0.00000000E+00  0.00000000E+00
  0.00000000E+00  0.00000000E+00  0.00000000E+00
  0.00000000E+00  0.00000000E+00  0.00000000E+00
  0.00000000E+00  0.00000000E+00  0.00000000E+00
  0.00000000E+00  0.00000000E+00  0.00000000E+00
  0.00000000E+00  0.00000000E+00  0.00000000E+00
  0.00000000E+00  0.00000000E+00  0.00000000E+00
  0.00000000E+00  0.00000000E+00  0.00000000E+00
  0.00000000E+00  0.00000000E+00  0.00000000E+00
  0.00000000E+00  0.00000000E+00  0.00000000E+00
  0.00000000E+00  0.00000000E+00  0.00000000E+00
  0.00000000E+00  0.00000000E+00  0.00000000E+00
  0.00000000E+00  0.00000000E+00  0.00000000E+00
  0.00000000E+00  0.00000000E+00  0.00000000E+00
  0.00000000E+00  0.00000000E+00  0.00000000E+00
  0.00000000E+00  0.00000000E+00  0.00000000E+00
  0.00000000E+00  0.00000000E+00  0.00000000E+00
  0.00000000E+00  0.00000000E+00  0.00000000E+00
  0.00000000E+00  0.00000000E+00  0.00000000E+00
  0.00000000E+00  0.00000000E+00  0.00000000E+00
  0.00000000E+00  0.00000000E+00  0.00000000E+00
  0.00000000E+00  0.00000000E+00  0.00000000E+00
  0.00000000E+00  0.00000000E+00  0.00000000E+00
  0.00000000E+00  0.00000000E+00  0.00000000E+00
  0.00000000E+00  0.00000000E+00  0.00000000E+00
  0.00000000E+00  0.00000000E+00  0.00000000E+00
  0.00000000E+00  0.00000000E+00  0.00000000E+00
  0.00000000E+00  0.00000000E+00  0.00000000E+00
  0.00000000E+00  0.00000000E+00  0.00000000E+00
  0.00000000E+00  0.00000000E+00  0.00000000E+00
  0.00000000E+00  0.00000000E+00  0.00000000E+00
  0.00000000E+00  0.00000000E+00  0.00000000E+00
  0.00000000E+00  0.00000000E+00  0.00000000E+00
  0.00000000E+00  0.00000000E+00  0.00000000E+00
  0.00000000E+00  0.00000000E+00  0.00000000E+00
  0.00000000E+00  0.00000000E+00  0.00000000E+00
  0.00000000E+00  0.00000000E+00  0.00000000E+00
  0.00000000E+00  0.00000000E+00  0.00000000E+00
  0.00000000E+00  0.00000000E+00  0.00000000E+00
  0.00000000E+00  0.00000000E+00  0.00000000E+00
  0.00000000E+00  0.00000000E+00  0.00000000E+00
  0.00000000E+00  0.00000000E+00  0.00000000E+00
  0.00000000E+00  0.00000000E+00  0.00000000E+00
  0.00000000E+00  0.00000000E+00  0.00000000E+00
  0.00000000E+00  0.00000000E+00  0.00000000E+00
  0.00000000E+00  0.00000000E+00  0.00000000E+00
  0.00000000E+00  0.00000000E+00  0.00000000E+00
  0.00000000E+00  0.00000000E+00  0.00000000E+00
  0.00000000E+00  0.00000000E+00  0.00000000E+00
  0.00000000E+00  0.00000000E+00  0.00000000E+00
  0.00000000E+00  0.00000000E+00  0.00000000E+00
  0.00000000E+00  0.00000000E+00  0.00000000E+00
  0.00000000E+00  0.00000000E+00  0.00000000E+00
  0.00000000E+00  0.00000000E+00  0.00000000E+00
  0.00000000E+00  0.00000000E+00  0.00000000E+00
  0.00000000E+00  0.00000000E+00  0.00000000E+00
  0.00000000E+00  0.00000000E+00  0.00000000E+00
  0.00000000E+00  0.00000000E+00  0.00000000E+00
  0.00000000E+00  0.00000000E+00  0.00000000E+00
  0.00000000E+00  0.00000000E+00  0.00000000E+00
  0.00000000E+00  0.00000000E+00  0.00000000E+00
  0.00000000E+00  0.00000000E+00  0.00000000E+00
  0.00000000E+00  0.00000000E+00  0.00000000E+00
  0.00000000E+00  0.00000000E+00  0.00000000E+00
  0.00000000E+00  0.00000000E+00  0.00000000E+00
  0.00000000E+00  0.00000000E+00  0.00000000E+00
  0.00000000E+00  0.00000000E+00  0.00000000E+00
  0.00000000E+00  0.00000000E+00  0.00000000E+00
  0.00000000E+00  0.00000000E+00  0.00000000E+00
  0.00000000E+00  0.00000000E+00  0.00000000E+00
  0.00000000E+00  0.00000000E+00  0.00000000E+00
  0.00000000E+00  0.00000000E+00  0.00000000E+00
  0.00000000E+00  0.00000000E+00  0.00000000E+00
  0.00000000E+00  0.00000000E+00  0.00000000E+00
  0.00000000E+00  0.00000000E+00  0.00000000E+00
  0.00000000E+00  0.00000000E+00  0.00000000E+00
  0.00000000E+00  0.00000000E+00  0.00000000E+00
  0.00000000E+00  0.00000000E+00  0.00000000E+00
  0.00000000E+00  0.00000000E+00  0.00000000E+00
  0.00000000E+00  0.00000000E+00  0.00000000E+00
  0.00000000E+00  0.00000000E+00  0.00000000E+00
  0.00000000E+00  0.00000000E+00  0.00000000E+00
  0.00000000E+00  0.00000000E+00  0.00000000E+00
  0.00000000E+00  0.00000000E+00  0.00000000E+00
  0.00000000E+00  0.00000000E+00  0.00000000E+00
  0.00000000E+00  0.00000000E+00  0.00000000E+00
  0.00000000E+00  0.00000000E+00  0.00000000E+00
  0.00000000E+00  0.00000000E+00  0.00000000E+00
  0.00000000E+00  0.00000000E+00  0.00000000E+00
  0.00000000E+00  0.00000000E+00  0.00000000E+00
  0.00000000E+00  0.00000000E+00  0.00000000E+00
  0.00000000E+00  0.00000000E+00  0.00000000E+00
  0.00000000E+00  0.00000000E+00  0.00000000E+00
  0.00000000E+00  0.00000000E+00  0.00000000E+00
  0.00000000E+00  0.00000000E+00  0.00000000E+00
  0.00000000E+00  0.00000000E+00  0.00000000E+00
  0.00000000E+00  0.00000000E+00  0.00000000E+00
  0.00000000E+00  0.00000000E+00  0.00000000E+00
  0.00000000E+00  0.00000000E+00  0.00000000E+00
  0.00000000E+00  0.00000000E+00  0.00000000E+00
  0.00000000E+00  0.00000000E+00  0.00000000E+00
  0.00000000E+00  0.00000000E+00  0.00000000E+00
  0.00000000E+00  0.00000000E+00  0.00000000E+00
  0.00000000E+00  0.00000000E+00  0.00000000E+00
  0.00000000E+00  0.00000000E+00  0.00000000E+00
  0.00000000E+00  0.00000000E+00  0.00000000E+00
  0.00000000E+00  0.00000000E+00  0.00000000E+00
  0.00000000E+00  0.00000000E+00  0.00000000E+00
  0.00000000E+00  0.00000000E+00  0.00000000E+00
  0.00000000E+00  0.00000000E+00  0.00000000E+00
  0.00000000E+00  0.00000000E+00  0.00000000E+00
  0.00000000E+00  0.00000000E+00  0.00000000E+00