Zr  O  F  H                             
   1.00000000000000     
    14.6087084399999991    0.0000000000000000    0.0000000000000000
    -6.0995943700000002   13.5475736500000004    0.0000000000000000
     0.0000000000000000    0.0000000000000000   32.4658957799999968
   Zr   O    F    H 
    80   160    34    34
Selective dynamics
Direct
  0.1072999602879108  0.1107509020259130  0.3626799193464265   F   F   F
  0.3752027684508334  0.1411823791782822  0.3611695660103535   F   F   F
  0.3729099757713499  0.4229177172991427  0.3686418726315495   F   F   F
  0.0769991309152616  0.3675992767162413  0.3710084865553043   F   F   F
  0.4150241426110028  0.2799622327943538  0.4516720934905933   F   F   F
  0.1984057059501083  0.3151122314806543  0.4480415241448767   F   F   F
  0.1804103960495240  0.0775491807715696  0.4568444542699766   F   F   F
  0.4012433377734936  0.0448202538467086  0.4606724581803618   F   F   F
  0.2344424391150781  0.4480134719179034  0.5408472105925028   F   F   F
  0.0161400524639745  0.4843520754729411  0.5390958181964578   F   F   F
  0.4998527713696888  0.2495595232287187  0.5457642774149249   F   F   F
  0.2182112126040039  0.2133152672692802  0.5475478657807713   F   F   F
  0.0540755982613049  0.1203595583624834  0.6300480685620437   T   T   T
  0.3330928953549601  0.1531806654580157  0.6269681655529873   T   T   T
  0.3146667640890939  0.4139691166697823  0.6341685059999858   T   T   T
  0.0354950633624447  0.3819996330583782  0.6379041362524671   T   T   T
  0.3698134040622904  0.2809795852107650  0.7193666262317324   T   T   T
  0.1459344623053312  0.3197231170936968  0.7185604651310190   T   T   T
  0.1169431198519104  0.0786634169113577  0.7256316901804341   T   T   T
  0.3660138524600715  0.0479814512730539  0.7221770256339554   T   T   T
  0.1072999600997520  0.6107509023949831  0.3626799193464265   F   F   F
  0.3752027682626675  0.6411823795473524  0.3611695660103535   F   F   F
  0.3729099755831840  0.9229177176682128  0.3686418726315495   F   F   F
  0.0769991314116254  0.8675992770853114  0.3710084865553043   F   F   F
  0.4150241424228369  0.7799622331634239  0.4516720934905933   F   F   F
  0.1984057057619495  0.8151122318497244  0.4480415241448767   F   F   F
  0.1804103962376828  0.5775491804024995  0.4568444542699766   F   F   F
  0.4012433379616525  0.5448202534776385  0.4606724581803618   F   F   F
  0.2344424386187143  0.9480134715488333  0.5408472105925028   F   F   F
  0.0161400522758157  0.9843520758420112  0.5390958181964578   F   F   F
  0.4998527715578547  0.7495595228596557  0.5457642774149249   F   F   F
  0.2182112127921698  0.7133152669002101  0.5475478657807713   F   F   F
  0.0532659078352792  0.6195706644685297  0.6301632901259762   T   T   T
  0.3325200294045026  0.6528312520144399  0.6266994469459257   T   T   T
  0.3151112409549353  0.9145928526560696  0.6340044466504832   T   T   T
  0.0361372586006807  0.8822886160593474  0.6379895643965428   T   T   T
  0.3709815099485306  0.7817269677380765  0.7188633784341510   T   T   T
  0.1472996508392941  0.8195142476396251  0.7179951081831231   T   T   T
  0.1224958663978120  0.5807167989352943  0.7245413145493905   T   T   T
  0.3670227990744697  0.5474334738483673  0.7222290165331174   T   T   T
  0.6072999602879108  0.1107509020259130  0.3626799193464265   F   F   F
  0.8752027684508334  0.1411823791782822  0.3611695660103535   F   F   F
  0.8729099757713499  0.4229177172991427  0.3686418726315495   F   F   F
  0.5769991309152616  0.3675992767162413  0.3710084865553043   F   F   F
  0.9150241426110028  0.2799622327943538  0.4516720934905933   F   F   F
  0.6984057059501083  0.3151122314806543  0.4480415241448767   F   F   F
  0.6804103960495240  0.0775491807715696  0.4568444542699766   F   F   F
  0.9012433377734936  0.0448202538467086  0.4606724581803618   F   F   F
  0.7344424391150781  0.4480134719179034  0.5408472105925028   F   F   F
  0.5161400524639745  0.4843520754729411  0.5390958181964578   F   F   F
  0.9998527713696888  0.2495595232287187  0.5457642774149249   F   F   F
  0.7182112126040039  0.2133152672692802  0.5475478657807713   F   F   F
  0.5553419041201616  0.1198166908554174  0.6301884155210770   T   T   T
  0.8342486645200589  0.1568508966062203  0.6269185992020343   T   T   T
  0.8175872222767269  0.4186094177062287  0.6352468170355207   T   T   T
  0.5365046067041892  0.3830043586744274  0.6378623757233726   T   T   T
  0.8659285431443891  0.2846800957945329  0.7252172979714838   T   T   T
  0.6557865629484037  0.3293557028144111  0.7172171302424053   T   T   T
  0.6334453357755764  0.0911350978462586  0.7251463139779195   T   T   T
  0.8498958928548960  0.0586655949632886  0.7227042715359193   T   T   T
  0.6072999600997520  0.6107509023949831  0.3626799193464265   F   F   F
  0.8752027682626675  0.6411823795473524  0.3611695660103535   F   F   F
  0.8729099755831840  0.9229177176682128  0.3686418726315495   F   F   F
  0.5769991314116254  0.8675992770853114  0.3710084865553043   F   F   F
  0.9150241424228369  0.7799622331634239  0.4516720934905933   F   F   F
  0.6984057057619495  0.8151122318497244  0.4480415241448767   F   F   F
  0.6804103962376828  0.5775491804024995  0.4568444542699766   F   F   F
  0.9012433379616525  0.5448202534776385  0.4606724581803618   F   F   F
  0.7344424386187143  0.9480134715488333  0.5408472105925028   F   F   F
  0.5161400522758157  0.9843520758420112  0.5390958181964578   F   F   F
  0.9998527715578547  0.7495595228596557  0.5457642774149249   F   F   F
  0.7182112127921698  0.7133152669002101  0.5475478657807713   F   F   F
  0.5550508925884939  0.6196453659964444  0.6297660033559124   T   T   T
  0.8340635403171044  0.6539576293632222  0.6278430235392625   T   T   T
  0.8173060957290461  0.9191038823927269  0.6343559684015666   T   T   T
  0.5366849404037664  0.8837566807817908  0.6378946637361186   T   T   T
  0.8653580972780470  0.7893006513553799  0.7208986961422209   T   T   T
  0.6564886326151934  0.8292750823664090  0.7170547218921193   T   T   T
  0.6333967035002122  0.5902074251929189  0.7242608397109511   T   T   T
  0.8494013034672980  0.5503404767877326  0.7278674053888150   T   T   T
  0.1332582265626669  0.0059689038117909  0.4018946551303202   F   F   F
  0.2181988781032373  0.3661521172833773  0.3825003874881503   F   F   F
  0.3442342672352794  0.0153678283195759  0.3310424656331463   F   F   F
  0.2448769086493598  0.1532202571934320  0.3416956173386723   F   F   F
  0.4183450511797773  0.3018822266376802  0.3812778210674068   F   F   F
  0.4479630891185806  0.0541491356276893  0.3979564111383311   F   F   F
  0.0314071462063694  0.2142568009586014  0.3475222399669775   F   F   F
  0.0226551989466728  0.4641564239069496  0.3395728532397797   F   F   F
  0.4439043559933253  0.1765955828555335  0.4903745631379621   F   F   F
  0.0376710753307208  0.0432766736795003  0.4766665390927969   F   F   F
  0.1526998132164152  0.1823197248313164  0.4187291303502150   F   F   F
  0.0609778626800761  0.3186209200641628  0.4320697212870783   F   F   F
  0.2410437716299114  0.4716434307777320  0.4708552709769123   F   F   F
  0.2643985499594521  0.2237504121632909  0.4830709797220933   F   F   F
  0.3563347177442537  0.3876955036889598  0.4380853724283114   F   F   F
  0.3354974923431868  0.1352524710577967  0.4250661838045247   F   F   F
  0.2604301099607511  0.3429483656654639  0.5797765521564813   F   F   F
  0.3553411594725162  0.2126448018977953  0.5638597850510294   F   F   F
  0.4741103145572438  0.3547873036290881  0.5067627900516811   F   F   F
  0.3790288096649093  0.4850060784869754  0.5227594134782905   F   F   F
  0.0583022340726487  0.1417510576146626  0.5591551179124750   F   F   F
  0.0814467987013927  0.3927345269682263  0.5733121160164103   F   F   F
  0.1760565422169620  0.0558733964144196  0.5274894555519936   F   F   F
  0.1528366743269487  0.3047856851473938  0.5132875909207399   F   F   F
  0.0783673433050835  0.0134957444430590  0.6694385294616811   T   T   T
  0.1753874727928825  0.3848691922519026  0.6563371194324604   T   T   T
  0.2905847109278351  0.0219501654894222  0.5960066706758039   T   T   T
  0.1967225119211217  0.1540491094382110  0.6104753389426255   T   T   T
  0.3754644526729934  0.3108764522963642  0.6492325818462182   T   T   T
  0.3990078323303258  0.0572745537010282  0.6606065880820123   T   T   T
  0.4911116350293661  0.2242542885228820  0.6160788637446065   T   T   T
  0.4698201432214063  0.4733741145184396  0.6028361914957574   T   T   T
  0.3845655693119271  0.1677281858968847  0.7598948162410490   T   T   T
  0.4906752320891502  0.0478935220574696  0.7438857916795717   T   T   T
  0.1166576516557134  0.1934646455329401  0.6857716390889271   T   T   T
  0.0124142596132498  0.3224563772787425  0.7012358971111486   T   T   T
  0.2052809781263869  0.4844935016100881  0.7391210221575641   T   T   T
  0.2145481475291970  0.2198452850903044  0.7538864735791236   T   T   T
  0.3120423470751081  0.3894490247499091  0.7100457530879026   T   T   T
  0.2966168000267421  0.1451153062919595  0.6917373859363792   T   T   T
  0.1332582267508329  0.5059689034427208  0.4018946551303202   F   F   F
  0.2181988782913962  0.8661521169143072  0.3825003874881503   F   F   F
  0.3442342677316361  0.5153678286886461  0.3310424656331463   F   F   F
  0.2448769088375258  0.6532202568243619  0.3416956173386723   F   F   F
  0.4183450516761411  0.8018822270067503  0.3812778210674068   F   F   F
  0.4479630886222168  0.5541491352586192  0.3979564111383311   F   F   F
  0.0314071467027262  0.7142568013276644  0.3475222399669775   F   F   F
  0.0226551984503160  0.9641564235378794  0.3395728532397797   F   F   F
  0.4439043561814913  0.6765955824864633  0.4903745631379621   F   F   F
  0.0376710748343640  0.5432766733104302  0.4766665390927969   F   F   F
  0.1526998137127720  0.6823197252003865  0.4187291303502150   F   F   F
  0.0609778628682420  0.8186209196950927  0.4320697212870783   F   F   F
  0.2410437718180773  0.9716434304086619  0.4708552709769123   F   F   F
  0.2643985494630883  0.7237504117942208  0.4830709797220933   F   F   F
  0.3563347182406105  0.8876955040580299  0.4380853724283114   F   F   F
  0.3354974925313456  0.6352524706887266  0.4250661838045247   F   F   F
  0.2604301101489170  0.8429483652963938  0.5797765521564813   F   F   F
  0.3553411589761595  0.7126448015287252  0.5638597850510294   F   F   F
  0.4741103143690779  0.8547873039981582  0.5067627900516811   F   F   F
  0.3790288101612731  0.9850060788560455  0.5227594134782905   F   F   F
  0.0583022335762848  0.6417510572455924  0.5591551179124750   F   F   F
  0.0814467982050360  0.8927345265991562  0.5733121160164103   F   F   F
  0.1760565417206053  0.5558733960453495  0.5274894555519936   F   F   F
  0.1528366745151146  0.8047856847783237  0.5132875909207399   F   F   F
  0.0812898925252745  0.5141301807615959  0.6687223666074891   T   T   T
  0.1760708192587917  0.8876220799912796  0.6564469837718288   T   T   T
  0.2904649172104083  0.5217595893895469  0.5961079770827019   T   T   T
  0.1968107386456343  0.6539331110141652  0.6100561549285916   T   T   T
  0.3762346891717819  0.8115856445494563  0.6495377510745748   T   T   T
  0.3990532409600381  0.5569205814557688  0.6607253151775113   T   T   T
  0.4911543947665971  0.7246756418227773  0.6161180626876630   T   T   T
  0.4702386605379087  0.9735187663363377  0.6031381975945967   T   T   T
  0.3892948775296100  0.6698840380323043  0.7589144029745636   T   T   T
  0.4914628770396413  0.5465973794143254  0.7439323786046919   T   T   T
  0.1227066277052939  0.6968653553604728  0.6843818742213041   T   T   T
  0.0144933413331596  0.8253266897814250  0.7017110186561305   T   T   T
  0.2056167135539378  0.9854391228999214  0.7409322311644656   T   T   T
  0.2179306156005110  0.7218201659126405  0.7536360945938474   T   T   T
  0.3124388790453949  0.8906668782386822  0.7099264427369544   T   T   T
  0.2975069277882892  0.6458690126690303  0.6916276728211906   T   T   T
  0.6332582265626669  0.0059689038117909  0.4018946551303202   F   F   F
  0.7181988787877600  0.3661521172833773  0.3825003874881503   F   F   F
  0.8442342672352794  0.0153678283195759  0.3310424656331463   F   F   F
  0.7448769086493598  0.1532202571934320  0.3416956173386723   F   F   F
  0.9183450511797773  0.3018822266376802  0.3812778210674068   F   F   F
  0.9479630891185806  0.0541491356276893  0.3979564111383311   F   F   F
  0.5314071462063694  0.2142568009586014  0.3475222399669775   F   F   F
  0.5226551989466728  0.4641564239069496  0.3395728532397797   F   F   F
  0.9439043559933253  0.1765955828555335  0.4903745631379621   F   F   F
  0.5376710753307208  0.0432766736795003  0.4766665390927969   F   F   F
  0.6526998132164152  0.1823197248313164  0.4187291303502150   F   F   F
  0.5609778626800761  0.3186209200641628  0.4320697212870783   F   F   F
  0.7410437716299114  0.4716434307777320  0.4708552709769123   F   F   F
  0.7643985499594521  0.2237504121632909  0.4830709797220933   F   F   F
  0.8563347177442537  0.3876955036889598  0.4380853724283114   F   F   F
  0.8354974923431868  0.1352524710577967  0.4250661838045247   F   F   F
  0.7604301099607511  0.3429483656654639  0.5797765521564813   F   F   F
  0.8553411594725162  0.2126448018977953  0.5638597850510294   F   F   F
  0.9741103145572438  0.3547873036290881  0.5067627900516811   F   F   F
  0.8790288096649093  0.4850060784869754  0.5227594134782905   F   F   F
  0.5583022340726487  0.1417510576146626  0.5591551179124750   F   F   F
  0.5814467987013927  0.3927345269682263  0.5733121160164103   F   F   F
  0.6760565422169620  0.0558733964144196  0.5274894555519936   F   F   F
  0.6528366743269487  0.3047856851473938  0.5132875909207399   F   F   F
  0.5803376466433595  0.0143353761756047  0.6687079774775618   T   T   T
  0.6714633106712066  0.3780177638631384  0.6537609585467850   T   T   T
  0.7904618868526933  0.0228775391655046  0.5958935533161686   T   T   T
  0.6968071821487074  0.1540445594478249  0.6100271278014399   T   T   T
  0.8785178411463733  0.3134553491870795  0.6470415536970175   T   T   T
  0.8997962375712267  0.0658711915328737  0.6601098143861716   T   T   T
  0.9963404330125823  0.2273989623718864  0.6160830840769697   T   T   T
  0.9731037806232128  0.4766062531855866  0.6034138935978699   T   T   T
  0.8755073347611070  0.1750316480425538  0.7595480808343757   T   T   T
  0.9835732976123462  0.0599679471918887  0.7395922952504432   T   T   T
  0.6009265559217705  0.1911909047187539  0.6851017510090691   T   T   T
  0.5110582687439561  0.3213941851015181  0.7013691766592236   T   T   T
  0.6883255931644583  0.4809809137334598  0.7318652698829975   T   T   T
  0.7136974060904718  0.2364376076162423  0.7468017684358473   T   T   T
  0.8139409933352483  0.3985427438597622  0.7052567656073307   T   T   T
  0.7890337761265380  0.1494414891435859  0.6895592576381903   T   T   T
  0.6332582267508329  0.5059689034427208  0.4018946551303202   F   F   F
  0.7181988782913962  0.8661521169143072  0.3825003874881503   F   F   F
  0.8442342677316361  0.5153678286886461  0.3310424656331463   F   F   F
  0.7448769088375258  0.6532202568243619  0.3416956173386723   F   F   F
  0.9183450516761411  0.8018822270067503  0.3812778210674068   F   F   F
  0.9479630893067394  0.5541491352586192  0.3979564111383311   F   F   F
  0.5314071467027262  0.7142568013276644  0.3475222399669775   F   F   F
  0.5226551984503160  0.9641564235378794  0.3395728532397797   F   F   F
  0.9439043561814913  0.6765955824864633  0.4903745631379621   F   F   F
  0.5376710748343640  0.5432766733104302  0.4766665390927969   F   F   F
  0.6526998137127720  0.6823197252003865  0.4187291303502150   F   F   F
  0.5609778628682420  0.8186209196950927  0.4320697212870783   F   F   F
  0.7410437718180773  0.9716434304086619  0.4708552709769123   F   F   F
  0.7643985494630883  0.7237504117942208  0.4830709797220933   F   F   F
  0.8563347182406105  0.8876955040580299  0.4380853724283114   F   F   F
  0.8354974925313456  0.6352524706887266  0.4250661838045247   F   F   F
  0.7604301101489170  0.8429483652963938  0.5797765521564813   F   F   F
  0.8553411589761595  0.7126448015287252  0.5638597850510294   F   F   F
  0.9741103150536077  0.8547873039981582  0.5067627900516811   F   F   F
  0.8790288101612731  0.9850060788560455  0.5227594134782905   F   F   F
  0.5583022335762848  0.6417510572455924  0.5591551179124750   F   F   F
  0.5814467982050360  0.8927345265991562  0.5733121160164103   F   F   F
  0.6760565417206053  0.5558733960453495  0.5274894555519936   F   F   F
  0.6528366745151146  0.8047856847783237  0.5132875909207399   F   F   F
  0.5796941470955949  0.5146533459213409  0.6679587157111336   T   T   T
  0.6728076177629079  0.8805040773820253  0.6540814467221371   T   T   T
  0.7898358476674601  0.5227897409577400  0.5961805704424159   T   T   T
  0.6977460595805006  0.6549125434043016  0.6105847294502974   T   T   T
  0.8778416627878722  0.8129372446512361  0.6487772839294268   T   T   T
  0.8993603880262108  0.5634723602744341  0.6607469295480684   T   T   T
  0.9954165306664714  0.7273005841623242  0.6166547052954301   T   T   T
  0.9727368965742619  0.9761244939291847  0.6036728066419672   T   T   T
  0.8841851506715590  0.6840257684030682  0.7605649095006023   T   T   T
  0.9914389688447474  0.5667297411835471  0.7372502216840732   T   T   T
  0.6017451652375436  0.6923673009574690  0.6845826340422887   T   T   T
  0.5133660472629782  0.8241401061284018  0.7017060072628283   T   T   T
  0.6969560154260623  0.9838699666483320  0.7357150023086169   T   T   T
  0.7157064534701530  0.7385444519051075  0.7460557492342349   T   T   T
  0.8150653858620596  0.9005436151225773  0.7045646588211858   T   T   T
  0.7943242673950437  0.6494336137440198  0.6924583958394763   T   T   T
  0.6499188463513367  0.0857251089569309  0.8031388144075485   T   T   T
  0.7503238322492475  0.3867319356899261  0.8637006134080288   T   T   T
  0.6618271873000070  0.5870405496588176  0.8015551495775087   T   T   T
  0.7779008650096138  0.9025399355512020  0.8346758679170394   T   T   T
  0.1882111945922796  0.2119078392148063  0.8496805962860338   T   T   T
  0.1735722634469083  0.6943287969687091  0.8488692028811238   T   T   T
  0.1950418826279466  0.4660616612427073  0.8850201572906097   T   T   T
  0.2176464271873771  0.9726416866307281  0.8534182362149517   T   T   T
  0.4465967690983380  0.1349057368980333  0.8350396818360425   T   T   T
  0.4762982533767574  0.6444303076850029  0.8317083021792289   T   T   T
  0.4402543304168224  0.3542532607651935  0.7780805715883304   T   T   T
  0.4420133798580125  0.8560903195340376  0.7776853785943523   T   T   T
  0.9343643846803793  0.3752943345522690  0.7750210527543868   T   T   T
  0.9266334951872185  0.8746136032418735  0.7749851358564063   T   T   T
  0.1094262734700164  0.3158067011036482  0.7773087271942758   T   T   T
  0.1107684608381880  0.8161563054568376  0.7772412229104534   T   T   T
  0.0848596988253191  0.5080820782406220  0.7908522620575352   T   T   T
  0.0804368252247310  0.0021356251905012  0.7901857487211162   T   T   T
  0.1241482686573533  0.0557986842791804  0.8791788591866772   T   T   T
  0.0803928009204324  0.5481126119607298  0.8871646686680824   T   T   T
  0.1968659713901765  0.3172645832721993  0.9044413398463989   T   T   T
  0.2134017992231299  0.8362396572361401  0.8914883294654103   T   T   T
  0.3974220850133190  0.9504727872249048  0.8292458229573167   T   T   T
  0.4373574013597193  0.4600424733338975  0.8376903094176278   T   T   T
  0.5819836820186498  0.3139056186772825  0.7801672240461552   T   T   T
  0.5841341449950549  0.8162375857911200  0.7801941696420897   T   T   T
  0.6524369407932744  0.9611992179574158  0.8464142717003861   T   T   T
  0.6390742795735281  0.4589669568738780  0.8473202286542210   T   T   T
  0.6807763152330418  0.2112248993951271  0.8583319296193715   T   T   T
  0.7273115179016131  0.7306854941249955  0.8483217499247939   T   T   T
  0.8600790596227322  0.1442815527775802  0.8360016451624104   T   T   T
  0.9243146685090013  0.6244732513950775  0.8354821987527699   T   T   T
  0.2748395229091959  0.5036624307701479  0.8150404041679090   T   T   T
  0.8282341070375366  0.4949530108824022  0.7872505290609073   T   T   T
  0.6760132709204840  0.1711463776061311  0.8336966418793257   T   T   T
  0.6902117389062841  0.4281451335549843  0.8528212344590105   T   T   T
  0.7009440722259335  0.6790092238195986  0.8269664375033214   T   T   T
  0.7082983857468151  0.9368998763693445  0.8419231084221110   T   T   T
  0.1934498237184732  0.2715494252557464  0.8791476497095704   T   T   T
  0.1957569774223218  0.7754429227680413  0.8736891850029923   T   T   T
  0.1206345626880550  0.5085533959349711  0.8880977472145043   T   T   T
  0.1629865545837930  0.0157473417649487  0.8681611926958718   T   T   T
  0.4157464447826461  0.1730596688344583  0.7872971822037450   T   T   T
  0.4226587376076161  0.6745818116065517  0.7857825184097854   T   T   T
  0.4386092532834769  0.4220236941130696  0.8132683636509348   T   T   T
  0.4217229505816541  0.9174983645166475  0.8081412539046721   T   T   T
  0.0132739369561532  0.4473966946684609  0.7859958366034392   T   T   T
  0.0051858362120394  0.9418772341676372  0.7851485456967483   T   T   T
  0.2078413724755878  0.2284225276306208  0.7835283885393508   T   T   T
  0.2092906734535061  0.7265917211405035  0.7833872106689332   T   T   T
  0.1963101232838453  0.4740719863089234  0.7693510263805049   T   T   T
  0.1843472231844844  0.9664358858101626  0.7696826011902145   T   T   T
  0.1567803084490838  0.1387550116138593  0.8622395864005130   T   T   T
  0.1289412403349076  0.6306428449733312  0.8635219532576485   T   T   T
  0.1930429450590561  0.3957130198117310  0.8948067721507219   T   T   T
  0.2164175396737081  0.9128191390488858  0.8699168014170755   T   T   T
  0.4330760635732152  0.0654231701274464  0.8334667733135412   T   T   T
  0.4608266575480423  0.5745188684898183  0.8329861755785393   T   T   T
  0.5229685666698504  0.3350251185786964  0.7811794379593737   T   T   T
  0.5253139879591040  0.8371721232208759  0.7813629046547683   T   T   T
  0.6553971998715240  0.0296831154467972  0.8213889915873824   T   T   T
  0.6556845103144191  0.5273683447206434  0.8208740727133015   T   T   T
  0.7226722455981757  0.3131598602965572  0.8591499375398921   T   T   T
  0.7554856632936769  0.8292221824201362  0.8388561506810018   T   T   T
  0.8728699348286197  0.1624061105250809  0.8067104230307770   T   T   T
  0.9141563348948682  0.6930829550966314  0.7883056066082045   T   T   T
  0.2451385921147445  0.4897617562135379  0.8422629068186533   T   T   T
  0.8865117465340897  0.5648394073097945  0.8187733807797329   T   T   T
 
  0.00000000E+00  0.00000000E+00  0.00000000E+00
  0.00000000E+00  0.00000000E+00  0.00000000E+00
  0.00000000E+00  0.00000000E+00  0.00000000E+00
  0.00000000E+00  0.00000000E+00  0.00000000E+00
  0.00000000E+00  0.00000000E+00  0.00000000E+00
  0.00000000E+00  0.00000000E+00  0.00000000E+00
  0.00000000E+00  0.00000000E+00  0.00000000E+00
  0.00000000E+00  0.00000000E+00  0.00000000E+00
  0.00000000E+00  0.00000000E+00  0.00000000E+00
  0.00000000E+00  0.00000000E+00  0.00000000E+00
  0.00000000E+00  0.00000000E+00  0.00000000E+00
  0.00000000E+00  0.00000000E+00  0.00000000E+00
  0.00000000E+00  0.00000000E+00  0.00000000E+00
  0.00000000E+00  0.00000000E+00  0.00000000E+00
  0.00000000E+00  0.00000000E+00  0.00000000E+00
  0.00000000E+00  0.00000000E+00  0.00000000E+00
  0.00000000E+00  0.00000000E+00  0.00000000E+00
  0.00000000E+00  0.00000000E+00  0.00000000E+00
  0.00000000E+00  0.00000000E+00  0.00000000E+00
  0.00000000E+00  0.00000000E+00  0.00000000E+00
  0.00000000E+00  0.00000000E+00  0.00000000E+00
  0.00000000E+00  0.00000000E+00  0.00000000E+00
  0.00000000E+00  0.00000000E+00  0.00000000E+00
  0.00000000E+00  0.00000000E+00  0.00000000E+00
  0.00000000E+00  0.00000000E+00  0.00000000E+00
  0.00000000E+00  0.00000000E+00  0.00000000E+00
  0.00000000E+00  0.00000000E+00  0.00000000E+00
  0.00000000E+00  0.00000000E+00  0.00000000E+00
  0.00000000E+00  0.00000000E+00  0.00000000E+00
  0.00000000E+00  0.00000000E+00  0.00000000E+00
  0.00000000E+00  0.00000000E+00  0.00000000E+00
  0.00000000E+00  0.00000000E+00  0.00000000E+00
  0.00000000E+00  0.00000000E+00  0.00000000E+00
  0.00000000E+00  0.00000000E+00  0.00000000E+00
  0.00000000E+00  0.00000000E+00  0.00000000E+00
  0.00000000E+00  0.00000000E+00  0.00000000E+00
  0.00000000E+00  0.00000000E+00  0.00000000E+00
  0.00000000E+00  0.00000000E+00  0.00000000E+00
  0.00000000E+00  0.00000000E+00  0.00000000E+00
  0.00000000E+00  0.00000000E+00  0.00000000E+00
  0.00000000E+00  0.00000000E+00  0.00000000E+00
  0.00000000E+00  0.00000000E+00  0.00000000E+00
  0.00000000E+00  0.00000000E+00  0.00000000E+00
  0.00000000E+00  0.00000000E+00  0.00000000E+00
  0.00000000E+00  0.00000000E+00  0.00000000E+00
  0.00000000E+00  0.00000000E+00  0.00000000E+00
  0.00000000E+00  0.00000000E+00  0.00000000E+00
  0.00000000E+00  0.00000000E+00  0.00000000E+00
  0.00000000E+00  0.00000000E+00  0.00000000E+00
  0.00000000E+00  0.00000000E+00  0.00000000E+00
  0.00000000E+00  0.00000000E+00  0.00000000E+00
  0.00000000E+00  0.00000000E+00  0.00000000E+00
  0.00000000E+00  0.00000000E+00  0.00000000E+00
  0.00000000E+00  0.00000000E+00  0.00000000E+00
  0.00000000E+00  0.00000000E+00  0.00000000E+00
  0.00000000E+00  0.00000000E+00  0.00000000E+00
  0.00000000E+00  0.00000000E+00  0.00000000E+00
  0.00000000E+00  0.00000000E+00  0.00000000E+00
  0.00000000E+00  0.00000000E+00  0.00000000E+00
  0.00000000E+00  0.00000000E+00  0.00000000E+00
  0.00000000E+00  0.00000000E+00  0.00000000E+00
  0.00000000E+00  0.00000000E+00  0.00000000E+00
  0.00000000E+00  0.00000000E+00  0.00000000E+00
  0.00000000E+00  0.00000000E+00  0.00000000E+00
  0.00000000E+00  0.00000000E+00  0.00000000E+00
  0.00000000E+00  0.00000000E+00  0.00000000E+00
  0.00000000E+00  0.00000000E+00  0.00000000E+00
  0.00000000E+00  0.00000000E+00  0.00000000E+00
  0.00000000E+00  0.00000000E+00  0.00000000E+00
  0.00000000E+00  0.00000000E+00  0.00000000E+00
  0.00000000E+00  0.00000000E+00  0.00000000E+00
  0.00000000E+00  0.00000000E+00  0.00000000E+00
  0.00000000E+00  0.00000000E+00  0.00000000E+00
  0.00000000E+00  0.00000000E+00  0.00000000E+00
  0.00000000E+00  0.00000000E+00  0.00000000E+00
  0.00000000E+00  0.00000000E+00  0.00000000E+00
  0.00000000E+00  0.00000000E+00  0.00000000E+00
  0.00000000E+00  0.00000000E+00  0.00000000E+00
  0.00000000E+00  0.00000000E+00  0.00000000E+00
  0.00000000E+00  0.00000000E+00  0.00000000E+00
  0.00000000E+00  0.00000000E+00  0.00000000E+00
  0.00000000E+00  0.00000000E+00  0.00000000E+00
  0.00000000E+00  0.00000000E+00  0.00000000E+00
  0.00000000E+00  0.00000000E+00  0.00000000E+00
  0.00000000E+00  0.00000000E+00  0.00000000E+00
  0.00000000E+00  0.00000000E+00  0.00000000E+00
  0.00000000E+00  0.00000000E+00  0.00000000E+00
  0.00000000E+00  0.00000000E+00  0.00000000E+00
  0.00000000E+00  0.00000000E+00  0.00000000E+00
  0.00000000E+00  0.00000000E+00  0.00000000E+00
  0.00000000E+00  0.00000000E+00  0.00000000E+00
  0.00000000E+00  0.00000000E+00  0.00000000E+00
  0.00000000E+00  0.00000000E+00  0.00000000E+00
  0.00000000E+00  0.00000000E+00  0.00000000E+00
  0.00000000E+00  0.00000000E+00  0.00000000E+00
  0.00000000E+00  0.00000000E+00  0.00000000E+00
  0.00000000E+00  0.00000000E+00  0.00000000E+00
  0.00000000E+00  0.00000000E+00  0.00000000E+00
  0.00000000E+00  0.00000000E+00  0.00000000E+00
  0.00000000E+00  0.00000000E+00  0.00000000E+00
  0.00000000E+00  0.00000000E+00  0.00000000E+00
  0.00000000E+00  0.00000000E+00  0.00000000E+00
  0.00000000E+00  0.00000000E+00  0.00000000E+00
  0.00000000E+00  0.00000000E+00  0.00000000E+00
  0.00000000E+00  0.00000000E+00  0.00000000E+00
  0.00000000E+00  0.00000000E+00  0.00000000E+00
  0.00000000E+00  0.00000000E+00  0.00000000E+00
  0.00000000E+00  0.00000000E+00  0.00000000E+00
  0.00000000E+00  0.00000000E+00  0.00000000E+00
  0.00000000E+00  0.00000000E+00  0.00000000E+00
  0.00000000E+00  0.00000000E+00  0.00000000E+00
  0.00000000E+00  0.00000000E+00  0.00000000E+00
  0.00000000E+00  0.00000000E+00  0.00000000E+00
  0.00000000E+00  0.00000000E+00  0.00000000E+00
  0.00000000E+00  0.00000000E+00  0.00000000E+00
  0.00000000E+00  0.00000000E+00  0.00000000E+00
  0.00000000E+00  0.00000000E+00  0.00000000E+00
  0.00000000E+00  0.00000000E+00  0.00000000E+00
  0.00000000E+00  0.00000000E+00  0.00000000E+00
  0.00000000E+00  0.00000000E+00  0.00000000E+00
  0.00000000E+00  0.00000000E+00  0.00000000E+00
  0.00000000E+00  0.00000000E+00  0.00000000E+00
  0.00000000E+00  0.00000000E+00  0.00000000E+00
  0.00000000E+00  0.00000000E+00  0.00000000E+00
  0.00000000E+00  0.00000000E+00  0.00000000E+00
  0.00000000E+00  0.00000000E+00  0.00000000E+00
  0.00000000E+00  0.00000000E+00  0.00000000E+00
  0.00000000E+00  0.00000000E+00  0.00000000E+00
  0.00000000E+00  0.00000000E+00  0.00000000E+00
  0.00000000E+00  0.00000000E+00  0.00000000E+00
  0.00000000E+00  0.00000000E+00  0.00000000E+00
  0.00000000E+00  0.00000000E+00  0.00000000E+00
  0.00000000E+00  0.00000000E+00  0.00000000E+00
  0.00000000E+00  0.00000000E+00  0.00000000E+00
  0.00000000E+00  0.00000000E+00  0.00000000E+00
  0.00000000E+00  0.00000000E+00  0.00000000E+00
  0.00000000E+00  0.00000000E+00  0.00000000E+00
  0.00000000E+00  0.00000000E+00  0.00000000E+00
  0.00000000E+00  0.00000000E+00  0.00000000E+00
  0.00000000E+00  0.00000000E+00  0.00000000E+00
  0.00000000E+00  0.00000000E+00  0.00000000E+00
  0.00000000E+00  0.00000000E+00  0.00000000E+00
  0.00000000E+00  0.00000000E+00  0.00000000E+00
  0.00000000E+00  0.00000000E+00  0.00000000E+00
  0.00000000E+00  0.00000000E+00  0.00000000E+00
  0.00000000E+00  0.00000000E+00  0.00000000E+00