Hf  O  F  H                             
   1.00000000000000     
    14.6106902099999996    0.0000000000000000    0.0000000000000000
    -6.0999520900000004   13.5497369200000009    0.0000000000000000
     0.0000000000000000    0.0000000000000000   32.4676209000000000
   Hf   O    F    H 
    80   160    30    30
Selective dynamics
Direct
  0.1048163482780637  0.1061689485554993  0.3670806074368045   F   F   F
  0.3732623612619577  0.1389233751263106  0.3650114703045588   F   F   F
  0.3737743268675473  0.4225943611162037  0.3725879111148558   F   F   F
  0.0744046443694870  0.3629124597055267  0.3752116716380627   F   F   F
  0.4129342004055374  0.2772409621071787  0.4538525553315154   F   F   F
  0.1984387749950471  0.3145780215635341  0.4495369052433418   F   F   F
  0.1809177729260796  0.0772327211353740  0.4589466093279384   F   F   F
  0.3999867945161597  0.0425280634895131  0.4631158645196578   F   F   F
  0.2330362736705780  0.4462873388393405  0.5411192918665648   F   F   F
  0.0165350607331476  0.4845897707658224  0.5388003781022306   F   F   F
  0.5009418603962672  0.2506439939056762  0.5456773192149740   F   F   F
  0.2175425423202526  0.2125169762336583  0.5479620080509164   F   F   F
  0.0532685205978326  0.1192229695993431  0.6278203433767378   T   T   T
  0.3351195854546787  0.1566862395049235  0.6243368754846490   T   T   T
  0.3199841927753996  0.4209729833707608  0.6315402365089279   T   T   T
  0.0346487117832222  0.3815510354232838  0.6364775463203812   T   T   T
  0.3643603751888096  0.2904631645597504  0.7144435606081658   T   T   T
  0.1544936658588484  0.3326344932782512  0.7122132061332901   T   T   T
  0.1299398879857618  0.0925613184276674  0.7202887008522061   T   T   T
  0.3587224244523747  0.0516306540617206  0.7177514822643213   T   T   T
  0.1048163482439719  0.6061689492935187  0.3670806074368045   F   F   F
  0.3732623445892003  0.6389233360111604  0.3650114703045588   F   F   F
  0.3737743272097589  0.9225943611162037  0.3725879111148558   F   F   F
  0.0744046077524629  0.8629124597055267  0.3752116716380627   F   F   F
  0.4129341844172032  0.7772409229920285  0.4538525553315154   F   F   F
  0.1984387746528355  0.8145780215635341  0.4495369052433418   F   F   F
  0.1809177725838680  0.5772327211353740  0.4589466093279384   F   F   F
  0.3999867578991356  0.5425280634895131  0.4631158645196578   F   F   F
  0.2330362380461040  0.9462873395773670  0.5411192918665648   F   F   F
  0.0165350603909360  0.9845897707658224  0.5388003781022306   F   F   F
  0.5009418600540485  0.7506439939056762  0.5456773192149740   F   F   F
  0.2175425419780339  0.7125169762336583  0.5479620080509164   F   F   F
  0.0529382827522850  0.6193445665657937  0.6269883244436588   T   T   T
  0.3358624713420795  0.6563954910020614  0.6249439806161615   T   T   T
  0.3198068945786879  0.9198618106881370  0.6312413972933224   T   T   T
  0.0360405419999568  0.8827337273240697  0.6368882840766100   T   T   T
  0.3658911901359277  0.7922741446112780  0.7150346835183039   T   T   T
  0.1560424507957705  0.8312964990395678  0.7122691572975164   T   T   T
  0.1309393057500445  0.5916234100949924  0.7180866610569007   T   T   T
  0.3579481676818060  0.5490227995926608  0.7204653454387900   T   T   T
  0.6048163664154629  0.1061689485554993  0.3670806074368045   F   F   F
  0.8732623793993639  0.1389233751263106  0.3650114703045588   F   F   F
  0.8737743087301411  0.4225943611162037  0.3725879111148558   F   F   F
  0.5744046262320808  0.3629124597055267  0.3752116716380627   F   F   F
  0.9129342185429365  0.2772409621071787  0.4538525553315154   F   F   F
  0.6984387568576409  0.3145780215635341  0.4495369052433418   F   F   F
  0.6809177910634858  0.0772327211353740  0.4589466093279384   F   F   F
  0.8999867763787535  0.0425280634895131  0.4631158645196578   F   F   F
  0.7330362555331718  0.4462873388393405  0.5411192918665648   F   F   F
  0.5165350788705538  0.4845897707658224  0.5388003781022306   F   F   F
  0.0009418785336663  0.2506439939056762  0.5456773192149740   F   F   F
  0.7175425241828464  0.2125169762336583  0.5479620080509164   F   F   F
  0.5551974001119707  0.1199625454857970  0.6289162223126930   T   T   T
  0.8345378218045651  0.1555925065756731  0.6247424205683019   T   T   T
  0.8177149689137977  0.4180074934400545  0.6327403759301268   T   T   T
  0.5376761104114773  0.3828568299052013  0.6373577227350942   T   T   T
  0.8642574977770042  0.2846580946317815  0.7177545707320072   T   T   T
  0.6556134583304715  0.3296267267018468  0.7152630180430544   T   T   T
  0.6317349075425052  0.0915076030092075  0.7223541401039836   T   T   T
  0.8570675666215556  0.0521415129477345  0.7190354121180949   T   T   T
  0.6048163663813710  0.6061689492935187  0.3670806074368045   F   F   F
  0.8732623627266065  0.6389233360111604  0.3650114703045588   F   F   F
  0.8737743090723527  0.9225943611162037  0.3725879111148558   F   F   F
  0.5744046258898692  0.8629124597055267  0.3752116716380627   F   F   F
  0.9129341662797970  0.7772409229920285  0.4538525553315154   F   F   F
  0.6984387565154293  0.8145780215635341  0.4495369052433418   F   F   F
  0.6809177907212671  0.5772327211353740  0.4589466093279384   F   F   F
  0.8999867760365419  0.5425280634895131  0.4631158645196578   F   F   F
  0.7330362561835102  0.9462873395773670  0.5411192918665648   F   F   F
  0.5165350422535298  0.9845897707658224  0.5388003781022306   F   F   F
  0.0009418419166423  0.7506439939056762  0.5456773192149740   F   F   F
  0.7175425238406277  0.7125169762336583  0.5479620080509164   F   F   F
  0.5547079286474074  0.6196826064376409  0.6286441656382964   T   T   T
  0.8345044506463554  0.6557260178339847  0.6245798602888086   T   T   T
  0.8186586065675524  0.9184086917230212  0.6325619799527391   T   T   T
  0.5376941351647571  0.8830034340931988  0.6372843078265306   T   T   T
  0.8657638097964210  0.7855800145481280  0.7174874197493057   T   T   T
  0.6573215256142555  0.8306956896017331  0.7142024632308313   T   T   T
  0.6376255067760109  0.5933317657495927  0.7208502672238545   T   T   T
  0.8591871429076344  0.5515130251766663  0.7192496550289640   T   T   T
  0.1288949438227718  0.0023484482531160  0.4055195577942712   F   F   F
  0.2171202666773340  0.3655754167956218  0.3861183836848383   F   F   F
  0.2422423258657034  0.1476133695295374  0.3459273718759022   F   F   F
  0.4156474651992070  0.2981851794507051  0.3852004440830470   F   F   F
  0.4483239664366039  0.0539867416112187  0.4013417443530614   F   F   F
  0.0299853079393912  0.2126836445618636  0.3518312443090039   F   F   F
  0.0187047650824397  0.4596688007873126  0.3441004418035476   F   F   F
  0.4407067360639800  0.1746064507354319  0.4921106331816247   F   F   F
  0.0377163536368030  0.0445207962015530  0.4784636998764498   F   F   F
  0.1535412084935999  0.1806685489506918  0.4213457166182479   F   F   F
  0.0591853102326070  0.3140539111662690  0.4348011568349932   F   F   F
  0.2394803091811184  0.4691793816761418  0.4727388595325124   F   F   F
  0.2650519433922724  0.2243375790944881  0.4843499474579644   F   F   F
  0.3566567922348511  0.3873940024069498  0.4403535575654089   F   F   F
  0.3328108427282856  0.1313181029643218  0.4278359404830923   F   F   F
  0.2581866711651202  0.3423726168552079  0.5795646223034439   F   F   F
  0.3560439348708542  0.2157748010357707  0.5635848618646406   F   F   F
  0.4760509698249393  0.3547283002155908  0.5072056726829643   F   F   F
  0.3780098865293127  0.4813491730878567  0.5232635452510195   F   F   F
  0.0572094665586604  0.1406956991309585  0.5591678785740655   F   F   F
  0.0828115205656985  0.3944539472283708  0.5727661560197674   F   F   F
  0.1768614834644140  0.0563424554666554  0.5276318489661804   F   F   F
  0.1512854977469189  0.3024251718091691  0.5140239261879529   F   F   F
  0.0815715985083862  0.0162482306346937  0.6660259303932118   T   T   T
  0.1745008909637869  0.3845119389430721  0.6522221891005086   T   T   T
  0.2926602306810160  0.0240038021081641  0.5942853093805539   T   T   T
  0.1973261875553858  0.1531676311691939  0.6088003738010357   T   T   T
  0.3747545217629596  0.3120436545049247  0.6470312150660649   T   T   T
  0.4006174531602837  0.0641475069587565  0.6572394663434219   T   T   T
  0.4937344461485422  0.2273649607423436  0.6142920251981840   T   T   T
  0.4697782691749413  0.4725200600719436  0.6022388210004198   T   T   T
  0.3976221058052865  0.1834650054249162  0.7606545141673261   T   T   T
  0.4891195607185881  0.0578814781040878  0.7383189432795703   T   T   T
  0.1086362432130114  0.1961479518308534  0.6805047928309313   T   T   T
  0.0148943478971021  0.3244618561025298  0.6994101313053130   T   T   T
  0.1967369080355884  0.4880337022815864  0.7317509450788251   T   T   T
  0.2183104744643549  0.2386308723994144  0.7411162130477384   T   T   T
  0.3171963239615975  0.4031200451012009  0.7008775486819634   T   T   T
  0.3002929536804203  0.1494100245593334  0.6895835322830332   T   T   T
  0.1288949434805602  0.5023484482531160  0.4055195577942712   F   F   F
  0.2171202300603028  0.8655754167956218  0.3861183836848383   F   F   F
  0.2422423265160418  0.6476133702675639  0.3459273718759022   F   F   F
  0.4156474648569883  0.7981851794507051  0.3852004440830470   F   F   F
  0.4483239667788155  0.5539867416112187  0.4013417443530614   F   F   F
  0.0299853079052994  0.7126836452998830  0.3518312443090039   F   F   F
  0.0187047647402281  0.9596688007873126  0.3441004418035476   F   F   F
  0.4407066994469560  0.6746064507354319  0.4921106331816247   F   F   F
  0.0377163539790217  0.5445207962015530  0.4784636998764498   F   F   F
  0.1535412081513883  0.6806685489506918  0.4213457166182479   F   F   F
  0.0591853098903883  0.8140539111662690  0.4348011568349932   F   F   F
  0.2394803088388997  0.9691793816761418  0.4727388595325124   F   F   F
  0.2650519437344911  0.7243375790944881  0.4843499474579644   F   F   F
  0.3566567918926324  0.8873940024069498  0.4403535575654089   F   F   F
  0.3328108423860741  0.6313181029643218  0.4278359404830923   F   F   F
  0.2581866708229015  0.8423726168552079  0.5795646223034439   F   F   F
  0.3560439345286426  0.7157748010357707  0.5635848618646406   F   F   F
  0.4760509541447320  0.8547282618384600  0.5072056726829643   F   F   F
  0.3780098499122886  0.9813491730878567  0.5232635452510195   F   F   F
  0.0572094306260666  0.6406956991309585  0.5591678785740655   F   F   F
  0.0828115209079101  0.8944539472283708  0.5727661560197674   F   F   F
  0.1768614841147524  0.5563424562046748  0.5276318489661804   F   F   F
  0.1512854611298948  0.8024251718091691  0.5140239261879529   F   F   F
  0.0804057325572976  0.5161106713049175  0.6645757472220424   T   T   T
  0.1754457542564978  0.8853609862429402  0.6523063793859265   T   T   T
  0.2927476736535049  0.5243596081739466  0.5944068067962748   T   T   T
  0.1979444173812826  0.6534806833206027  0.6088348972702909   T   T   T
  0.3763441868192529  0.8121974278996834  0.6471778370648016   T   T   T
  0.4011469159956983  0.5639031028279591  0.6580188227885609   T   T   T
  0.4940499370606244  0.7276032924474766  0.6144362140907351   T   T   T
  0.4701972149504260  0.9728560483938233  0.6023490581302472   T   T   T
  0.3892362715719789  0.6794748632199106  0.7645572670089323   T   T   T
  0.4972986094214999  0.5705540246589816  0.7355622300004732   T   T   T
  0.1108908915131818  0.6974949969081149  0.6792799691330348   T   T   T
  0.0164131834325703  0.8252151118815502  0.6999339141189151   T   T   T
  0.2052899492614076  0.9847609203297369  0.7335521831942499   T   T   T
  0.2185598357519723  0.7359219713403647  0.7416811014194552   T   T   T
  0.3178714637879071  0.9022259530952621  0.7005921972155220   T   T   T
  0.3041469784627602  0.6503901301929403  0.6906693197050747   T   T   T
  0.6288949256853655  0.0023484482531160  0.4055195577942712   F   F   F
  0.7171202485399277  0.3655754167956218  0.3861183836848383   F   F   F
  0.7422423440031096  0.1476133695295374  0.3459273718759022   F   F   F
  0.9156474470618008  0.2981851794507051  0.3852004440830470   F   F   F
  0.9483239482991976  0.0539867416112187  0.4013417443530614   F   F   F
  0.5299853260767975  0.2126836445618636  0.3518312443090039   F   F   F
  0.5187047825354156  0.4596688007873126  0.3441004418035476   F   F   F
  0.9407067179265738  0.1746064507354319  0.4921106331816247   F   F   F
  0.5377163717742093  0.0445207962015530  0.4784636998764498   F   F   F
  0.6535411903561936  0.1806685489506918  0.4213457166182479   F   F   F
  0.5591852920952007  0.3140539111662690  0.4348011568349932   F   F   F
  0.7394803273185175  0.4691793816761418  0.4727388595325124   F   F   F
  0.7650519615296787  0.2243375790944881  0.4843499474579644   F   F   F
  0.8566568103722574  0.3873940024069498  0.4403535575654089   F   F   F
  0.8328108608656919  0.1313181029643218  0.4278359404830923   F   F   F
  0.7581866530277139  0.3423726168552079  0.5795646223034439   F   F   F
  0.8560439167334479  0.2157748010357707  0.5635848618646406   F   F   F
  0.9760509516875331  0.3547283002155908  0.5072056726829643   F   F   F
  0.8780098683919064  0.4813491730878567  0.5232635452510195   F   F   F
  0.5572094484212542  0.1406956991309585  0.5591678785740655   F   F   F
  0.5828115387031048  0.3944539472283708  0.5727661560197674   F   F   F
  0.6768614653270077  0.0563424554666554  0.5276318489661804   F   F   F
  0.6512854796095198  0.3024251718091691  0.5140239261879529   F   F   F
  0.5787525950979752  0.0143933269425244  0.6671407127139275   T   T   T
  0.6741415490936461  0.3829581458602482  0.6526298955644247   T   T   T
  0.7927988523392584  0.0230965442661607  0.5946586328075649   T   T   T
  0.6971425938920442  0.1523493543699542  0.6087705113596499   T   T   T
  0.8766848550552446  0.3111204955426658  0.6470677737516174   T   T   T
  0.9019092722632233  0.0640127985593239  0.6577185033993824   T   T   T
  0.9944215752408844  0.2276131319737460  0.6141336391537898   T   T   T
  0.9689441374289176  0.4721664016907771  0.6017894143705105   T   T   T
  0.8823066709691425  0.1735143613504877  0.7560892945005692   T   T   T
  0.9927102207952682  0.0584504942968942  0.7390051778096220   T   T   T
  0.6077096469050641  0.1943346073100076  0.6815523855023269   T   T   T
  0.5110867688270886  0.3226167605040766  0.6986950467300372   T   T   T
  0.7043970268159423  0.4829138130780683  0.7324279648349920   T   T   T
  0.7199611709958967  0.2363359887832554  0.7415373538230872   T   T   T
  0.8189943982784320  0.4004015841625885  0.7021482134635992   T   T   T
  0.7955489788508135  0.1458228223695772  0.6881752790514730   T   T   T
  0.6288949253431539  0.5023484482531160  0.4055195577942712   F   F   F
  0.7171202481977090  0.8655754167956218  0.3861183836848383   F   F   F
  0.7422423439690178  0.6476133702675639  0.3459273718759022   F   F   F
  0.9156474467195821  0.7981851794507051  0.3852004440830470   F   F   F
  0.9483239486414092  0.5539867416112187  0.4013417443530614   F   F   F
  0.5299853260427057  0.7126836452998830  0.3518312443090039   F   F   F
  0.5187047828776272  0.9596688007873126  0.3441004418035476   F   F   F
  0.9407067175843622  0.6746064507354319  0.4921106331816247   F   F   F
  0.5377163358416155  0.5445207962015530  0.4784636998764498   F   F   F
  0.6535411900139820  0.6806685489506918  0.4213457166182479   F   F   F
  0.5591852917529891  0.8140539111662690  0.4348011568349932   F   F   F
  0.7394802907014935  0.9691793816761418  0.4727388595325124   F   F   F
  0.7650519255970849  0.7243375790944881  0.4843499474579644   F   F   F
  0.8566568100300387  0.8873940024069498  0.4403535575654089   F   F   F
  0.8328108605234732  0.6313181029643218  0.4278359404830923   F   F   F
  0.7581866526854952  0.8423726168552079  0.5795646223034439   F   F   F
  0.8560439163912363  0.7157748010357707  0.5635848618646406   F   F   F
  0.9760509360073257  0.8547282618384600  0.5072056726829643   F   F   F
  0.8780098680496948  0.9813491730878567  0.5232635452510195   F   F   F
  0.5572094487634729  0.6406956991309585  0.5591678785740655   F   F   F
  0.5828115383608861  0.8944539472283708  0.5727661560197674   F   F   F
  0.6768614659773462  0.5563424562046748  0.5276318489661804   F   F   F
  0.6512854792673011  0.8024251718091691  0.5140239261879529   F   F   F
  0.5809342370560290  0.5155015055323648  0.6664654310619309   T   T   T
  0.6749003928875552  0.8851837606068438  0.6527235841703006   T   T   T
  0.7929467519206534  0.5231824302696888  0.5947599435038886   T   T   T
  0.6972307882348563  0.6517888826806617  0.6082955083187803   T   T   T
  0.8778663884692719  0.8115791499806285  0.6473194047764365   T   T   T
  0.9022336270364837  0.5642720328275541  0.6579187695008641   T   T   T
  0.9944345998574156  0.7279646823454120  0.6140506767245825   T   T   T
  0.9700520592081073  0.9725977006327683  0.6022722832918322   T   T   T
  0.8816537100728910  0.6731263690703285  0.7560032845629872   T   T   T
  0.9956017151114787  0.5594470985764081  0.7396403794870954   T   T   T
  0.6161644144768303  0.6985211434614068  0.6795244639705673   T   T   T
  0.5125274412442311  0.8208896169170840  0.6999489630788638   T   T   T
  0.7028968901183306  0.9817758757356088  0.7325193949386236   T   T   T
  0.7206773532377111  0.7385452734863019  0.7419609779937854   T   T   T
  0.8190094763266377  0.9004961370481589  0.7017368548893643   T   T   T
  0.7959949500741627  0.6464939067149874  0.6883101147595461   T   T   T
  0.8438790223745301  0.0134899652354292  0.3353585148273055   F   F   F
  0.8438790223750132  0.5134900652373702  0.3353585148273055   F   F   F
  0.3438790223750132  0.5134900652373702  0.3353585148273055   F   F   F
  0.3438790223745301  0.0134899652354292  0.3353585148273055   F   F   F
  0.6444983702744155  0.0766317127134598  0.7922038784877311   T   T   T
  0.7062249079645498  0.3603653708463524  0.8406337749544293   T   T   T
  0.6429365380489270  0.5780953881231767  0.7920348373787183   T   T   T
  0.1527714462827200  0.0866897434466685  0.7960200876455636   T   T   T
  0.2314032299882663  0.6197051764499670  0.8191492941112291   T   T   T
  0.1135913504926382  0.3229594737518450  0.7834884055649642   T   T   T
  0.1042293539947890  0.8104860490506676  0.7823904679610227   T   T   T
  0.3363373786425328  0.0829365276495627  0.8283439484546155   T   T   T
  0.4139961152918123  0.3690263254140202  0.7696370303367259   T   T   T
  0.4129397961796669  0.8634551046975283  0.7702990360428923   T   T   T
  0.9468061160609526  0.1893703505720056  0.8341436441679403   T   T   T
  0.9351397973664644  0.6778545789985296  0.8358824224434798   T   T   T
  0.9668629167347649  0.0466015834656141  0.8624002689659860   T   T   T
  0.9920730433976549  0.5538999598824943  0.8607094721604543   T   T   T
  0.9191084952005807  0.3618970150486679  0.7710380466154196   T   T   T
  0.9205323313135082  0.8613105540430294  0.7712159967480109   T   T   T
  0.0928311794412510  0.9340606224983125  0.8289696847650010   T   T   T
  0.1298217395274766  0.4537702184425543  0.8313421347142225   T   T   T
  0.1668695495684091  0.2348129506371709  0.8297410640334389   T   T   T
  0.1622243469988872  0.7373763598673376  0.8332116435811729   T   T   T
  0.3817979370890203  0.9433700536688645  0.8283174233590885   T   T   T
  0.3374150300147183  0.4743446959604513  0.7822428842457819   T   T   T
  0.5750983501680437  0.2844503737931783  0.7695603791902377   T   T   T
  0.5792748529052937  0.7869250688836225  0.7744693022806106   T   T   T
  0.6641798657497640  0.9350189787969126  0.8388231606156440   T   T   T
  0.5924610925160178  0.4380762961994595  0.8379626519172707   T   T   T
  0.6410122456517904  0.1862181951604182  0.8429990049869606   T   T   T
  0.6308916029407420  0.7099816124375962  0.8255374264654803   T   T   T
  0.8590441981632704  0.8907191311177673  0.8346822679406876   T   T   T
  0.9082673691576931  0.3851275569927096  0.8421850017952556   T   T   T
  0.6448632728107573  0.1309453428820926  0.8131631504449841   T   T   T
  0.6558281045406354  0.3908250559094548  0.8386813794028553   T   T   T
  0.6392243485607736  0.6461626067020081  0.8093550541668347   T   T   T
  0.1619906289907746  0.1709118412350798  0.8170451449307453   T   T   T
  0.1889056657184985  0.6861277477751272  0.8268279274107480   T   T   T
  0.1227901677610841  0.4048631398989235  0.8090023316323793   T   T   T
  0.0908749999631143  0.8828008784438068  0.8087450936141345   T   T   T
  0.3683868857908303  0.1583562901564509  0.7885059237570710   T   T   T
  0.3440877358918208  0.6674726093404726  0.7885380865876163   T   T   T
  0.3773094046983515  0.4263042378940594  0.7791965128574693   T   T   T
  0.3983020938208484  0.9128497969222904  0.8028062365440920   T   T   T
  0.9093035588647514  0.1842193329889540  0.7845059398576559   T   T   T
  0.9062503233804713  0.6824646680272911  0.7847222797905150   T   T   T
  0.9512025956231159  0.1304357542665325  0.8465226978219458   T   T   T
  0.9548634549902364  0.6260051531283970  0.8463576599023942   T   T   T
  0.9112042145981939  0.3730925181460793  0.8111853797395107   T   T   T
  0.8849543942014749  0.8761638949542071  0.8073717292265865   T   T   T
  0.1263355359477108  0.0181961198014978  0.8116982843302971   T   T   T
  0.1870286542121699  0.5441570240178714  0.8243779153789296   T   T   T
  0.1375785434400155  0.2787847522379557  0.8038306041901951   T   T   T
  0.1319789287061270  0.7711352608336104  0.8033912033026975   T   T   T
  0.3582392076939088  0.0275958122966276  0.8286295618104996   T   T   T
  0.4764850257348369  0.2245974860831941  0.7661101591897858   T   T   T
  0.4612438083685595  0.7161795954753487  0.7734783819603089   T   T   T
  0.6557852534949415  0.9810035064806760  0.8205658449976433   T   T   T
  0.6128258706037902  0.4935587589584922  0.8176893078477911   T   T   T
  0.6692361621394295  0.2616663184922643  0.8401266712634554   T   T   T
  0.6115140482159378  0.7532355275695449  0.8015982974899660   T   T   T
  0.9194956308832856  0.9797098554643665  0.8513636063177070   T   T   T
  0.9546219490810809  0.4814918003078614  0.8529595666766394   T   T   T
 
  0.00000000E+00  0.00000000E+00  0.00000000E+00
  0.00000000E+00  0.00000000E+00  0.00000000E+00
  0.00000000E+00  0.00000000E+00  0.00000000E+00
  0.00000000E+00  0.00000000E+00  0.00000000E+00
  0.00000000E+00  0.00000000E+00  0.00000000E+00
  0.00000000E+00  0.00000000E+00  0.00000000E+00
  0.00000000E+00  0.00000000E+00  0.00000000E+00
  0.00000000E+00  0.00000000E+00  0.00000000E+00
  0.00000000E+00  0.00000000E+00  0.00000000E+00
  0.00000000E+00  0.00000000E+00  0.00000000E+00
  0.00000000E+00  0.00000000E+00  0.00000000E+00
  0.00000000E+00  0.00000000E+00  0.00000000E+00
  0.00000000E+00  0.00000000E+00  0.00000000E+00
  0.00000000E+00  0.00000000E+00  0.00000000E+00
  0.00000000E+00  0.00000000E+00  0.00000000E+00
  0.00000000E+00  0.00000000E+00  0.00000000E+00
  0.00000000E+00  0.00000000E+00  0.00000000E+00
  0.00000000E+00  0.00000000E+00  0.00000000E+00
  0.00000000E+00  0.00000000E+00  0.00000000E+00
  0.00000000E+00  0.00000000E+00  0.00000000E+00
  0.00000000E+00  0.00000000E+00  0.00000000E+00
  0.00000000E+00  0.00000000E+00  0.00000000E+00
  0.00000000E+00  0.00000000E+00  0.00000000E+00
  0.00000000E+00  0.00000000E+00  0.00000000E+00
  0.00000000E+00  0.00000000E+00  0.00000000E+00
  0.00000000E+00  0.00000000E+00  0.00000000E+00
  0.00000000E+00  0.00000000E+00  0.00000000E+00
  0.00000000E+00  0.00000000E+00  0.00000000E+00
  0.00000000E+00  0.00000000E+00  0.00000000E+00
  0.00000000E+00  0.00000000E+00  0.00000000E+00
  0.00000000E+00  0.00000000E+00  0.00000000E+00
  0.00000000E+00  0.00000000E+00  0.00000000E+00
  0.00000000E+00  0.00000000E+00  0.00000000E+00
  0.00000000E+00  0.00000000E+00  0.00000000E+00
  0.00000000E+00  0.00000000E+00  0.00000000E+00
  0.00000000E+00  0.00000000E+00  0.00000000E+00
  0.00000000E+00  0.00000000E+00  0.00000000E+00
  0.00000000E+00  0.00000000E+00  0.00000000E+00
  0.00000000E+00  0.00000000E+00  0.00000000E+00
  0.00000000E+00  0.00000000E+00  0.00000000E+00
  0.00000000E+00  0.00000000E+00  0.00000000E+00
  0.00000000E+00  0.00000000E+00  0.00000000E+00
  0.00000000E+00  0.00000000E+00  0.00000000E+00
  0.00000000E+00  0.00000000E+00  0.00000000E+00
  0.00000000E+00  0.00000000E+00  0.00000000E+00
  0.00000000E+00  0.00000000E+00  0.00000000E+00
  0.00000000E+00  0.00000000E+00  0.00000000E+00
  0.00000000E+00  0.00000000E+00  0.00000000E+00
  0.00000000E+00  0.00000000E+00  0.00000000E+00
  0.00000000E+00  0.00000000E+00  0.00000000E+00
  0.00000000E+00  0.00000000E+00  0.00000000E+00
  0.00000000E+00  0.00000000E+00  0.00000000E+00
  0.00000000E+00  0.00000000E+00  0.00000000E+00
  0.00000000E+00  0.00000000E+00  0.00000000E+00
  0.00000000E+00  0.00000000E+00  0.00000000E+00
  0.00000000E+00  0.00000000E+00  0.00000000E+00
  0.00000000E+00  0.00000000E+00  0.00000000E+00
  0.00000000E+00  0.00000000E+00  0.00000000E+00
  0.00000000E+00  0.00000000E+00  0.00000000E+00
  0.00000000E+00  0.00000000E+00  0.00000000E+00
  0.00000000E+00  0.00000000E+00  0.00000000E+00
  0.00000000E+00  0.00000000E+00  0.00000000E+00
  0.00000000E+00  0.00000000E+00  0.00000000E+00
  0.00000000E+00  0.00000000E+00  0.00000000E+00
  0.00000000E+00  0.00000000E+00  0.00000000E+00
  0.00000000E+00  0.00000000E+00  0.00000000E+00
  0.00000000E+00  0.00000000E+00  0.00000000E+00
  0.00000000E+00  0.00000000E+00  0.00000000E+00
  0.00000000E+00  0.00000000E+00  0.00000000E+00
  0.00000000E+00  0.00000000E+00  0.00000000E+00
  0.00000000E+00  0.00000000E+00  0.00000000E+00
  0.00000000E+00  0.00000000E+00  0.00000000E+00
  0.00000000E+00  0.00000000E+00  0.00000000E+00
  0.00000000E+00  0.00000000E+00  0.00000000E+00
  0.00000000E+00  0.00000000E+00  0.00000000E+00
  0.00000000E+00  0.00000000E+00  0.00000000E+00
  0.00000000E+00  0.00000000E+00  0.00000000E+00
  0.00000000E+00  0.00000000E+00  0.00000000E+00
  0.00000000E+00  0.00000000E+00  0.00000000E+00
  0.00000000E+00  0.00000000E+00  0.00000000E+00
  0.00000000E+00  0.00000000E+00  0.00000000E+00
  0.00000000E+00  0.00000000E+00  0.00000000E+00
  0.00000000E+00  0.00000000E+00  0.00000000E+00
  0.00000000E+00  0.00000000E+00  0.00000000E+00
  0.00000000E+00  0.00000000E+00  0.00000000E+00
  0.00000000E+00  0.00000000E+00  0.00000000E+00
  0.00000000E+00  0.00000000E+00  0.00000000E+00
  0.00000000E+00  0.00000000E+00  0.00000000E+00
  0.00000000E+00  0.00000000E+00  0.00000000E+00
  0.00000000E+00  0.00000000E+00  0.00000000E+00
  0.00000000E+00  0.00000000E+00  0.00000000E+00
  0.00000000E+00  0.00000000E+00  0.00000000E+00
  0.00000000E+00  0.00000000E+00  0.00000000E+00
  0.00000000E+00  0.00000000E+00  0.00000000E+00
  0.00000000E+00  0.00000000E+00  0.00000000E+00
  0.00000000E+00  0.00000000E+00  0.00000000E+00
  0.00000000E+00  0.00000000E+00  0.00000000E+00
  0.00000000E+00  0.00000000E+00  0.00000000E+00
  0.00000000E+00  0.00000000E+00  0.00000000E+00
  0.00000000E+00  0.00000000E+00  0.00000000E+00
  0.00000000E+00  0.00000000E+00  0.00000000E+00
  0.00000000E+00  0.00000000E+00  0.00000000E+00
  0.00000000E+00  0.00000000E+00  0.00000000E+00
  0.00000000E+00  0.00000000E+00  0.00000000E+00
  0.00000000E+00  0.00000000E+00  0.00000000E+00
  0.00000000E+00  0.00000000E+00  0.00000000E+00
  0.00000000E+00  0.00000000E+00  0.00000000E+00
  0.00000000E+00  0.00000000E+00  0.00000000E+00
  0.00000000E+00  0.00000000E+00  0.00000000E+00
  0.00000000E+00  0.00000000E+00  0.00000000E+00
  0.00000000E+00  0.00000000E+00  0.00000000E+00
  0.00000000E+00  0.00000000E+00  0.00000000E+00
  0.00000000E+00  0.00000000E+00  0.00000000E+00
  0.00000000E+00  0.00000000E+00  0.00000000E+00
  0.00000000E+00  0.00000000E+00  0.00000000E+00
  0.00000000E+00  0.00000000E+00  0.00000000E+00
  0.00000000E+00  0.00000000E+00  0.00000000E+00
  0.00000000E+00  0.00000000E+00  0.00000000E+00
  0.00000000E+00  0.00000000E+00  0.00000000E+00
  0.00000000E+00  0.00000000E+00  0.00000000E+00
  0.00000000E+00  0.00000000E+00  0.00000000E+00
  0.00000000E+00  0.00000000E+00  0.00000000E+00
  0.00000000E+00  0.00000000E+00  0.00000000E+00
  0.00000000E+00  0.00000000E+00  0.00000000E+00
  0.00000000E+00  0.00000000E+00  0.00000000E+00
  0.00000000E+00  0.00000000E+00  0.00000000E+00
  0.00000000E+00  0.00000000E+00  0.00000000E+00
  0.00000000E+00  0.00000000E+00  0.00000000E+00
  0.00000000E+00  0.00000000E+00  0.00000000E+00
  0.00000000E+00  0.00000000E+00  0.00000000E+00
  0.00000000E+00  0.00000000E+00  0.00000000E+00
  0.00000000E+00  0.00000000E+00  0.00000000E+00
  0.00000000E+00  0.00000000E+00  0.00000000E+00
  0.00000000E+00  0.00000000E+00  0.00000000E+00
  0.00000000E+00  0.00000000E+00  0.00000000E+00
  0.00000000E+00  0.00000000E+00  0.00000000E+00
  0.00000000E+00  0.00000000E+00  0.00000000E+00
  0.00000000E+00  0.00000000E+00  0.00000000E+00
  0.00000000E+00  0.00000000E+00  0.00000000E+00
  0.00000000E+00  0.00000000E+00  0.00000000E+00
  0.00000000E+00  0.00000000E+00  0.00000000E+00
  0.00000000E+00  0.00000000E+00  0.00000000E+00
  0.00000000E+00  0.00000000E+00  0.00000000E+00
  0.00000000E+00  0.00000000E+00  0.00000000E+00
  0.00000000E+00  0.00000000E+00  0.00000000E+00
  0.00000000E+00  0.00000000E+00  0.00000000E+00
  0.00000000E+00  0.00000000E+00  0.00000000E+00
  0.00000000E+00  0.00000000E+00  0.00000000E+00
  0.00000000E+00  0.00000000E+00  0.00000000E+00
  0.00000000E+00  0.00000000E+00  0.00000000E+00
  0.00000000E+00  0.00000000E+00  0.00000000E+00
  0.00000000E+00  0.00000000E+00  0.00000000E+00
  0.00000000E+00  0.00000000E+00  0.00000000E+00
  0.00000000E+00  0.00000000E+00  0.00000000E+00
  0.00000000E+00  0.00000000E+00  0.00000000E+00
  0.00000000E+00  0.00000000E+00  0.00000000E+00
  0.00000000E+00  0.00000000E+00  0.00000000E+00
  0.00000000E+00  0.00000000E+00  0.00000000E+00