Hf  O  F  H                             
   1.00000000000000     
    14.6106902099999996    0.0000000000000000    0.0000000000000000
    -6.0999520900000004   13.5497369200000009    0.0000000000000000
     0.0000000000000000    0.0000000000000000   32.4676209000000000
   Hf   O    F    H 
    80   160     8     8
Selective dynamics
Direct
  0.1048163482780637  0.1061689485554993  0.3670806074368045   F   F   F
  0.3732623612619577  0.1389233751263106  0.3650114703045588   F   F   F
  0.3737743268675473  0.4225943611162037  0.3725879111148558   F   F   F
  0.0744046443694870  0.3629124597055267  0.3752116716380627   F   F   F
  0.4129342004055374  0.2772409621071787  0.4538525553315154   F   F   F
  0.1984387749950471  0.3145780215635341  0.4495369052433418   F   F   F
  0.1809177729260796  0.0772327211353740  0.4589466093279384   F   F   F
  0.3999867945161597  0.0425280634895131  0.4631158645196578   F   F   F
  0.2330362736705780  0.4462873388393405  0.5411192918665648   F   F   F
  0.0165350607331476  0.4845897707658224  0.5388003781022306   F   F   F
  0.5009418603962672  0.2506439939056762  0.5456773192149740   F   F   F
  0.2175425423202526  0.2125169762336583  0.5479620080509164   F   F   F
  0.0551305580940630  0.1221350543376774  0.6289451658807895   T   T   T
  0.3346508913675612  0.1566606573718861  0.6248700607422093   T   T   T
  0.3167655352530628  0.4156314521115298  0.6332931283303407   T   T   T
  0.0359588968541273  0.3826620652016920  0.6371071487281972   T   T   T
  0.3719712372035695  0.2797315347092170  0.7175168641434773   T   T   T
  0.1495543410271472  0.3317661232230520  0.7161633119607304   T   T   T
  0.1297106833796222  0.0822325342819848  0.7192419041488953   T   T   T
  0.3614060215297289  0.0565036584139259  0.7213918684719633   T   T   T
  0.1048163482439719  0.6061689492935187  0.3670806074368045   F   F   F
  0.3732623445892003  0.6389233360111604  0.3650114703045588   F   F   F
  0.3737743272097589  0.9225943611162037  0.3725879111148558   F   F   F
  0.0744046077524629  0.8629124597055267  0.3752116716380627   F   F   F
  0.4129341844172032  0.7772409229920285  0.4538525553315154   F   F   F
  0.1984387746528355  0.8145780215635341  0.4495369052433418   F   F   F
  0.1809177725838680  0.5772327211353740  0.4589466093279384   F   F   F
  0.3999867578991356  0.5425280634895131  0.4631158645196578   F   F   F
  0.2330362380461040  0.9462873395773670  0.5411192918665648   F   F   F
  0.0165350603909360  0.9845897707658224  0.5388003781022306   F   F   F
  0.5009418600540485  0.7506439939056762  0.5456773192149740   F   F   F
  0.2175425419780339  0.7125169762336583  0.5479620080509164   F   F   F
  0.0525810481326255  0.6188282878931134  0.6274520766262501   T   T   T
  0.3338342208022358  0.6528019536419212  0.6232262176697517   T   T   T
  0.3207188334938671  0.9211449737487825  0.6320455678148750   T   T   T
  0.0359900711900362  0.8818990126636431  0.6355792252982277   T   T   T
  0.3598611445029990  0.7797818258034305  0.7125190105182764   T   T   T
  0.1602345610237276  0.8319492434592798  0.7109356557713452   T   T   T
  0.1274640906112900  0.5894005401648832  0.7199228144854520   T   T   T
  0.3534893981142717  0.5495105113324775  0.7191098506533852   T   T   T
  0.6048163664154629  0.1061689485554993  0.3670806074368045   F   F   F
  0.8732623793993639  0.1389233751263106  0.3650114703045588   F   F   F
  0.8737743087301411  0.4225943611162037  0.3725879111148558   F   F   F
  0.5744046262320808  0.3629124597055267  0.3752116716380627   F   F   F
  0.9129342185429365  0.2772409621071787  0.4538525553315154   F   F   F
  0.6984387568576409  0.3145780215635341  0.4495369052433418   F   F   F
  0.6809177910634858  0.0772327211353740  0.4589466093279384   F   F   F
  0.8999867763787535  0.0425280634895131  0.4631158645196578   F   F   F
  0.7330362555331718  0.4462873388393405  0.5411192918665648   F   F   F
  0.5165350788705538  0.4845897707658224  0.5388003781022306   F   F   F
  0.0009418785336663  0.2506439939056762  0.5456773192149740   F   F   F
  0.7175425241828464  0.2125169762336583  0.5479620080509164   F   F   F
  0.5533648464476900  0.1202966987212779  0.6280600444418326   T   T   T
  0.8341673194674047  0.1545151937557306  0.6236354987672063   T   T   T
  0.8181839463808213  0.4175362525711910  0.6327722844863380   T   T   T
  0.5378366587326279  0.3834541190323263  0.6373642464667634   T   T   T
  0.8587426241502685  0.2708553906280689  0.7138230058967489   T   T   T
  0.6584459898879951  0.3297028393720711  0.7146758055213916   T   T   T
  0.6290465490574358  0.0878096530874551  0.7195502091201631   T   T   T
  0.8620384443752931  0.0566165319772292  0.7219676838297385   T   T   T
  0.6048163663813710  0.6061689492935187  0.3670806074368045   F   F   F
  0.8732623627266065  0.6389233360111604  0.3650114703045588   F   F   F
  0.8737743090723527  0.9225943611162037  0.3725879111148558   F   F   F
  0.5744046258898692  0.8629124597055267  0.3752116716380627   F   F   F
  0.9129341662797970  0.7772409229920285  0.4538525553315154   F   F   F
  0.6984387565154293  0.8145780215635341  0.4495369052433418   F   F   F
  0.6809177907212671  0.5772327211353740  0.4589466093279384   F   F   F
  0.8999867760365419  0.5425280634895131  0.4631158645196578   F   F   F
  0.7330362561835102  0.9462873395773670  0.5411192918665648   F   F   F
  0.5165350422535298  0.9845897707658224  0.5388003781022306   F   F   F
  0.0009418419166423  0.7506439939056762  0.5456773192149740   F   F   F
  0.7175425238406277  0.7125169762336583  0.5479620080509164   F   F   F
  0.5551780019926955  0.6183855723953532  0.6301147688936322   T   T   T
  0.8336161812056671  0.6559323539358128  0.6256226561748464   T   T   T
  0.8219566785073278  0.9199978948685644  0.6324348488169900   T   T   T
  0.5341234180181827  0.8825071139770503  0.6356225811518741   T   T   T
  0.8736333487703261  0.7911974514483202  0.7179874729599762   T   T   T
  0.6560207978461230  0.8372288077723207  0.7100042145633203   T   T   T
  0.6271004328295918  0.5862800066260826  0.7252523599686598   T   T   T
  0.8575738177656635  0.5503715467509473  0.7196979038115658   T   T   T
  0.1288949438227718  0.0023484482531160  0.4055195577942712   F   F   F
  0.2171202666773340  0.3655754167956218  0.3861183836848383   F   F   F
  0.2422423258657034  0.1476133695295374  0.3459273718759022   F   F   F
  0.4156474651992070  0.2981851794507051  0.3852004440830470   F   F   F
  0.4483239664366039  0.0539867416112187  0.4013417443530614   F   F   F
  0.0299853079393912  0.2126836445618636  0.3518312443090039   F   F   F
  0.0187047650824397  0.4596688007873126  0.3441004418035476   F   F   F
  0.4407067360639800  0.1746064507354319  0.4921106331816247   F   F   F
  0.0377163536368030  0.0445207962015530  0.4784636998764498   F   F   F
  0.1535412084935999  0.1806685489506918  0.4213457166182479   F   F   F
  0.0591853102326070  0.3140539111662690  0.4348011568349932   F   F   F
  0.2394803091811184  0.4691793816761418  0.4727388595325124   F   F   F
  0.2650519433922724  0.2243375790944881  0.4843499474579644   F   F   F
  0.3566567922348511  0.3873940024069498  0.4403535575654089   F   F   F
  0.3328108427282856  0.1313181029643218  0.4278359404830923   F   F   F
  0.2581866711651202  0.3423726168552079  0.5795646223034439   F   F   F
  0.3560439348708542  0.2157748010357707  0.5635848618646406   F   F   F
  0.4760509698249393  0.3547283002155908  0.5072056726829643   F   F   F
  0.3780098865293127  0.4813491730878567  0.5232635452510195   F   F   F
  0.0572094665586604  0.1406956991309585  0.5591678785740655   F   F   F
  0.0828115205656985  0.3944539472283708  0.5727661560197674   F   F   F
  0.1768614834644140  0.0563424554666554  0.5276318489661804   F   F   F
  0.1512854977469189  0.3024251718091691  0.5140239261879529   F   F   F
  0.0817902103108881  0.0147420543058279  0.6647506085834612   T   T   T
  0.1742278190642742  0.3855966206889642  0.6529763721872620   T   T   T
  0.2919646226223025  0.0232918873762568  0.5948265681513127   T   T   T
  0.1969351747004901  0.1541803078712810  0.6087736570084449   T   T   T
  0.3777844365547166  0.3120944677984933  0.6476779400527894   T   T   T
  0.4011888905304942  0.0651806242986825  0.6585692488662248   T   T   T
  0.4939363119469514  0.2272302381115370  0.6140190237699716   T   T   T
  0.4707126743059279  0.4737205030502074  0.6027618265421250   T   T   T
  0.3913367667210821  0.1768218297453563  0.7520540472914528   T   T   T
  0.4904113585593205  0.0430176449864158  0.7401434532007617   T   T   T
  0.1134418868718682  0.1960889258204595  0.6836538346789427   T   T   T
  0.0131771270896849  0.3293858296159410  0.6985648463053287   T   T   T
  0.1981928885830635  0.4896416730479753  0.7326791073257192   T   T   T
  0.2188786065856772  0.2245021312706855  0.7489946210271817   T   T   T
  0.3103861005016775  0.3937921835069297  0.7057978159713140   T   T   T
  0.2884062449030768  0.1454587257531365  0.6868595703954490   T   T   T
  0.1288949434805602  0.5023484482531160  0.4055195577942712   F   F   F
  0.2171202300603028  0.8655754167956218  0.3861183836848383   F   F   F
  0.2422423265160418  0.6476133702675639  0.3459273718759022   F   F   F
  0.4156474648569883  0.7981851794507051  0.3852004440830470   F   F   F
  0.4483239667788155  0.5539867416112187  0.4013417443530614   F   F   F
  0.0299853079052994  0.7126836452998830  0.3518312443090039   F   F   F
  0.0187047647402281  0.9596688007873126  0.3441004418035476   F   F   F
  0.4407066994469560  0.6746064507354319  0.4921106331816247   F   F   F
  0.0377163539790217  0.5445207962015530  0.4784636998764498   F   F   F
  0.1535412081513883  0.6806685489506918  0.4213457166182479   F   F   F
  0.0591853098903883  0.8140539111662690  0.4348011568349932   F   F   F
  0.2394803088388997  0.9691793816761418  0.4727388595325124   F   F   F
  0.2650519437344911  0.7243375790944881  0.4843499474579644   F   F   F
  0.3566567918926324  0.8873940024069498  0.4403535575654089   F   F   F
  0.3328108423860741  0.6313181029643218  0.4278359404830923   F   F   F
  0.2581866708229015  0.8423726168552079  0.5795646223034439   F   F   F
  0.3560439345286426  0.7157748010357707  0.5635848618646406   F   F   F
  0.4760509541447320  0.8547282618384600  0.5072056726829643   F   F   F
  0.3780098499122886  0.9813491730878567  0.5232635452510195   F   F   F
  0.0572094306260666  0.6406956991309585  0.5591678785740655   F   F   F
  0.0828115209079101  0.8944539472283708  0.5727661560197674   F   F   F
  0.1768614841147524  0.5563424562046748  0.5276318489661804   F   F   F
  0.1512854611298948  0.8024251718091691  0.5140239261879529   F   F   F
  0.0787322894959500  0.5167207181012089  0.6655861415879024   T   T   T
  0.1749924417113736  0.8825315023710792  0.6517048487528352   T   T   T
  0.2926649506062655  0.5217787886463661  0.5944702609474616   T   T   T
  0.1965790551384029  0.6525310636612113  0.6085162447501836   T   T   T
  0.3766492441577210  0.8100602684313812  0.6461852211460403   T   T   T
  0.3982635543812385  0.5611363709454120  0.6584792805971725   T   T   T
  0.4940710280838853  0.7264040982750666  0.6150734182399574   T   T   T
  0.4684689015583003  0.9723327907825685  0.6018829444898847   T   T   T
  0.3842547344314807  0.6811687907565724  0.7545563351043676   T   T   T
  0.4834186698888620  0.5533119681924171  0.7377367016435655   T   T   T
  0.1058233182999927  0.6947331830284331  0.6807881841646672   T   T   T
  0.0182522686565559  0.8287469541293185  0.7009736708781560   T   T   T
  0.2036705702146380  0.9810191605296845  0.7344936967129168   T   T   T
  0.2167070549752049  0.7380613883970077  0.7424289728316523   T   T   T
  0.3184858640487125  0.8971293952147861  0.7006104394405948   T   T   T
  0.2923129063718772  0.6465410155002184  0.6863706838485193   T   T   T
  0.6288949256853655  0.0023484482531160  0.4055195577942712   F   F   F
  0.7171202485399277  0.3655754167956218  0.3861183836848383   F   F   F
  0.7422423440031096  0.1476133695295374  0.3459273718759022   F   F   F
  0.9156474470618008  0.2981851794507051  0.3852004440830470   F   F   F
  0.9483239482991976  0.0539867416112187  0.4013417443530614   F   F   F
  0.5299853260767975  0.2126836445618636  0.3518312443090039   F   F   F
  0.5187047825354156  0.4596688007873126  0.3441004418035476   F   F   F
  0.9407067179265738  0.1746064507354319  0.4921106331816247   F   F   F
  0.5377163717742093  0.0445207962015530  0.4784636998764498   F   F   F
  0.6535411903561936  0.1806685489506918  0.4213457166182479   F   F   F
  0.5591852920952007  0.3140539111662690  0.4348011568349932   F   F   F
  0.7394803273185175  0.4691793816761418  0.4727388595325124   F   F   F
  0.7650519615296787  0.2243375790944881  0.4843499474579644   F   F   F
  0.8566568103722574  0.3873940024069498  0.4403535575654089   F   F   F
  0.8328108608656919  0.1313181029643218  0.4278359404830923   F   F   F
  0.7581866530277139  0.3423726168552079  0.5795646223034439   F   F   F
  0.8560439167334479  0.2157748010357707  0.5635848618646406   F   F   F
  0.9760509516875331  0.3547283002155908  0.5072056726829643   F   F   F
  0.8780098683919064  0.4813491730878567  0.5232635452510195   F   F   F
  0.5572094484212542  0.1406956991309585  0.5591678785740655   F   F   F
  0.5828115387031048  0.3944539472283708  0.5727661560197674   F   F   F
  0.6768614653270077  0.0563424554666554  0.5276318489661804   F   F   F
  0.6512854796095198  0.3024251718091691  0.5140239261879529   F   F   F
  0.5786672970729747  0.0138718589197234  0.6649840057399258   T   T   T
  0.6752145930031428  0.3801710782421668  0.6525157789436051   T   T   T
  0.7936793356724774  0.0224239777687702  0.5945474222578612   T   T   T
  0.6960206348757856  0.1517483873037680  0.6081607879666358   T   T   T
  0.8750035818975240  0.3080256233714926  0.6457511808503255   T   T   T
  0.9034168796150286  0.0654778395529269  0.6591265559353489   T   T   T
  0.9953806460323552  0.2277270585325268  0.6144343382525601   T   T   T
  0.9692096815416738  0.4729133791430853  0.6021662381636324   T   T   T
  0.8904191128435469  0.1806086327547453  0.7506104820521622   T   T   T
  0.9932430029529613  0.0476131815979090  0.7387196683065688   T   T   T
  0.6051603610495441  0.1918433421693552  0.6817150953006180   T   T   T
  0.5165871549355779  0.3236126739843329  0.6979354391976041   T   T   T
  0.7060090012779155  0.4804278244664598  0.7298605381956930   T   T   T
  0.7170176669624196  0.2317539008394885  0.7425575679403108   T   T   T
  0.8206236242821210  0.3973782027049504  0.7030260284865960   T   T   T
  0.7846085757841076  0.1393026645409633  0.6848325334020595   T   T   T
  0.6288949253431539  0.5023484482531160  0.4055195577942712   F   F   F
  0.7171202481977090  0.8655754167956218  0.3861183836848383   F   F   F
  0.7422423439690178  0.6476133702675639  0.3459273718759022   F   F   F
  0.9156474467195821  0.7981851794507051  0.3852004440830470   F   F   F
  0.9483239486414092  0.5539867416112187  0.4013417443530614   F   F   F
  0.5299853260427057  0.7126836452998830  0.3518312443090039   F   F   F
  0.5187047828776272  0.9596688007873126  0.3441004418035476   F   F   F
  0.9407067175843622  0.6746064507354319  0.4921106331816247   F   F   F
  0.5377163358416155  0.5445207962015530  0.4784636998764498   F   F   F
  0.6535411900139820  0.6806685489506918  0.4213457166182479   F   F   F
  0.5591852917529891  0.8140539111662690  0.4348011568349932   F   F   F
  0.7394802907014935  0.9691793816761418  0.4727388595325124   F   F   F
  0.7650519255970849  0.7243375790944881  0.4843499474579644   F   F   F
  0.8566568100300387  0.8873940024069498  0.4403535575654089   F   F   F
  0.8328108605234732  0.6313181029643218  0.4278359404830923   F   F   F
  0.7581866526854952  0.8423726168552079  0.5795646223034439   F   F   F
  0.8560439163912363  0.7157748010357707  0.5635848618646406   F   F   F
  0.9760509360073257  0.8547282618384600  0.5072056726829643   F   F   F
  0.8780098680496948  0.9813491730878567  0.5232635452510195   F   F   F
  0.5572094487634729  0.6406956991309585  0.5591678785740655   F   F   F
  0.5828115383608861  0.8944539472283708  0.5727661560197674   F   F   F
  0.6768614659773462  0.5563424562046748  0.5276318489661804   F   F   F
  0.6512854792673011  0.8024251718091691  0.5140239261879529   F   F   F
  0.5795196838130168  0.5141993887526964  0.6676131721073453   T   T   T
  0.6730483593272797  0.8843155818633244  0.6510152621927260   T   T   T
  0.7921648753595119  0.5233467916914829  0.5951501380263323   T   T   T
  0.6970056570900252  0.6534059488071505  0.6093891063166379   T   T   T
  0.8808980400903991  0.8129886878110042  0.6461077362098752   T   T   T
  0.8995223761215999  0.5639462245680210  0.6585598058540593   T   T   T
  0.9941127783320272  0.7273595521827551  0.6143239899835752   T   T   T
  0.9706437686602816  0.9746308043606001  0.6023286389964463   T   T   T
  0.8854853442083949  0.6749498169767597  0.7565428070273565   T   T   T
  0.9911559222120541  0.5514052641334732  0.7414420712007127   T   T   T
  0.6126277874047454  0.6966293881816631  0.6833785450304072   T   T   T
  0.5135891757626221  0.8301795063972762  0.7016286179781264   T   T   T
  0.7027756055745248  0.9830319561239380  0.7347956386713750   T   T   T
  0.7082851086950928  0.7436428655086832  0.7479621613888997   T   T   T
  0.8146372305670346  0.8955200313192356  0.6999201167005454   T   T   T
  0.7969090294881712  0.6520707911452713  0.6903691301558064   T   T   T
  0.8438790223745301  0.0134899652354292  0.3353585148273055   F   F   F
  0.8438790223750132  0.5134900652373702  0.3353585148273055   F   F   F
  0.3438790223750132  0.5134900652373702  0.3353585148273055   F   F   F
  0.3438790223745301  0.0134899652354292  0.3353585148273055   F   F   F
  0.6461252924628610  0.5771891834175141  0.7849424324072173   T   T   T
  0.1014573040594370  0.3149292516854801  0.7747653051660626   T   T   T
  0.4870207232425002  0.6652811353345786  0.8208406890925826   T   T   T
  0.4474604022194160  0.3625739435973746  0.7716631950110937   T   T   T
  0.1779644285801645  0.2505298931736951  0.8262972109847775   T   T   T
  0.4309162022251717  0.4810933292011242  0.8246780965555666   T   T   T
  0.5858486968235082  0.3156095332320895  0.7752010468106927   T   T   T
  0.9032810539961990  0.8531051064578155  0.7722255945151204   T   T   T
  0.9134566982745200  0.6916252462596750  0.7840578014698345   T   T   T
  0.1389932062485264  0.2790989328810214  0.8102114936294207   T   T   T
  0.4240860772838305  0.6870163452017903  0.7799478853103879   T   T   T
  0.4456607548310617  0.4432170432032905  0.8031245397406154   T   T   T
  0.2166931774378721  0.2288878716408941  0.7796794994311468   T   T   T
  0.4736852490921978  0.5951487433194167  0.8214835993765399   T   T   T
  0.5246220554270906  0.3343335127770480  0.7762264231185486   T   T   T
  0.7158848530041069  0.7410534058871184  0.7778334101889147   T   T   T
 
  0.00000000E+00  0.00000000E+00  0.00000000E+00
  0.00000000E+00  0.00000000E+00  0.00000000E+00
  0.00000000E+00  0.00000000E+00  0.00000000E+00
  0.00000000E+00  0.00000000E+00  0.00000000E+00
  0.00000000E+00  0.00000000E+00  0.00000000E+00
  0.00000000E+00  0.00000000E+00  0.00000000E+00
  0.00000000E+00  0.00000000E+00  0.00000000E+00
  0.00000000E+00  0.00000000E+00  0.00000000E+00
  0.00000000E+00  0.00000000E+00  0.00000000E+00
  0.00000000E+00  0.00000000E+00  0.00000000E+00
  0.00000000E+00  0.00000000E+00  0.00000000E+00
  0.00000000E+00  0.00000000E+00  0.00000000E+00
  0.00000000E+00  0.00000000E+00  0.00000000E+00
  0.00000000E+00  0.00000000E+00  0.00000000E+00
  0.00000000E+00  0.00000000E+00  0.00000000E+00
  0.00000000E+00  0.00000000E+00  0.00000000E+00
  0.00000000E+00  0.00000000E+00  0.00000000E+00
  0.00000000E+00  0.00000000E+00  0.00000000E+00
  0.00000000E+00  0.00000000E+00  0.00000000E+00
  0.00000000E+00  0.00000000E+00  0.00000000E+00
  0.00000000E+00  0.00000000E+00  0.00000000E+00
  0.00000000E+00  0.00000000E+00  0.00000000E+00
  0.00000000E+00  0.00000000E+00  0.00000000E+00
  0.00000000E+00  0.00000000E+00  0.00000000E+00
  0.00000000E+00  0.00000000E+00  0.00000000E+00
  0.00000000E+00  0.00000000E+00  0.00000000E+00
  0.00000000E+00  0.00000000E+00  0.00000000E+00
  0.00000000E+00  0.00000000E+00  0.00000000E+00
  0.00000000E+00  0.00000000E+00  0.00000000E+00
  0.00000000E+00  0.00000000E+00  0.00000000E+00
  0.00000000E+00  0.00000000E+00  0.00000000E+00
  0.00000000E+00  0.00000000E+00  0.00000000E+00
  0.00000000E+00  0.00000000E+00  0.00000000E+00
  0.00000000E+00  0.00000000E+00  0.00000000E+00
  0.00000000E+00  0.00000000E+00  0.00000000E+00
  0.00000000E+00  0.00000000E+00  0.00000000E+00
  0.00000000E+00  0.00000000E+00  0.00000000E+00
  0.00000000E+00  0.00000000E+00  0.00000000E+00
  0.00000000E+00  0.00000000E+00  0.00000000E+00
  0.00000000E+00  0.00000000E+00  0.00000000E+00
  0.00000000E+00  0.00000000E+00  0.00000000E+00
  0.00000000E+00  0.00000000E+00  0.00000000E+00
  0.00000000E+00  0.00000000E+00  0.00000000E+00
  0.00000000E+00  0.00000000E+00  0.00000000E+00
  0.00000000E+00  0.00000000E+00  0.00000000E+00
  0.00000000E+00  0.00000000E+00  0.00000000E+00
  0.00000000E+00  0.00000000E+00  0.00000000E+00
  0.00000000E+00  0.00000000E+00  0.00000000E+00
  0.00000000E+00  0.00000000E+00  0.00000000E+00
  0.00000000E+00  0.00000000E+00  0.00000000E+00
  0.00000000E+00  0.00000000E+00  0.00000000E+00
  0.00000000E+00  0.00000000E+00  0.00000000E+00
  0.00000000E+00  0.00000000E+00  0.00000000E+00
  0.00000000E+00  0.00000000E+00  0.00000000E+00
  0.00000000E+00  0.00000000E+00  0.00000000E+00
  0.00000000E+00  0.00000000E+00  0.00000000E+00
  0.00000000E+00  0.00000000E+00  0.00000000E+00
  0.00000000E+00  0.00000000E+00  0.00000000E+00
  0.00000000E+00  0.00000000E+00  0.00000000E+00
  0.00000000E+00  0.00000000E+00  0.00000000E+00
  0.00000000E+00  0.00000000E+00  0.00000000E+00
  0.00000000E+00  0.00000000E+00  0.00000000E+00
  0.00000000E+00  0.00000000E+00  0.00000000E+00
  0.00000000E+00  0.00000000E+00  0.00000000E+00
  0.00000000E+00  0.00000000E+00  0.00000000E+00
  0.00000000E+00  0.00000000E+00  0.00000000E+00
  0.00000000E+00  0.00000000E+00  0.00000000E+00
  0.00000000E+00  0.00000000E+00  0.00000000E+00
  0.00000000E+00  0.00000000E+00  0.00000000E+00
  0.00000000E+00  0.00000000E+00  0.00000000E+00
  0.00000000E+00  0.00000000E+00  0.00000000E+00
  0.00000000E+00  0.00000000E+00  0.00000000E+00
  0.00000000E+00  0.00000000E+00  0.00000000E+00
  0.00000000E+00  0.00000000E+00  0.00000000E+00
  0.00000000E+00  0.00000000E+00  0.00000000E+00
  0.00000000E+00  0.00000000E+00  0.00000000E+00
  0.00000000E+00  0.00000000E+00  0.00000000E+00
  0.00000000E+00  0.00000000E+00  0.00000000E+00
  0.00000000E+00  0.00000000E+00  0.00000000E+00
  0.00000000E+00  0.00000000E+00  0.00000000E+00
  0.00000000E+00  0.00000000E+00  0.00000000E+00
  0.00000000E+00  0.00000000E+00  0.00000000E+00
  0.00000000E+00  0.00000000E+00  0.00000000E+00
  0.00000000E+00  0.00000000E+00  0.00000000E+00
  0.00000000E+00  0.00000000E+00  0.00000000E+00
  0.00000000E+00  0.00000000E+00  0.00000000E+00
  0.00000000E+00  0.00000000E+00  0.00000000E+00
  0.00000000E+00  0.00000000E+00  0.00000000E+00
  0.00000000E+00  0.00000000E+00  0.00000000E+00
  0.00000000E+00  0.00000000E+00  0.00000000E+00
  0.00000000E+00  0.00000000E+00  0.00000000E+00
  0.00000000E+00  0.00000000E+00  0.00000000E+00
  0.00000000E+00  0.00000000E+00  0.00000000E+00
  0.00000000E+00  0.00000000E+00  0.00000000E+00
  0.00000000E+00  0.00000000E+00  0.00000000E+00
  0.00000000E+00  0.00000000E+00  0.00000000E+00
  0.00000000E+00  0.00000000E+00  0.00000000E+00
  0.00000000E+00  0.00000000E+00  0.00000000E+00
  0.00000000E+00  0.00000000E+00  0.00000000E+00
  0.00000000E+00  0.00000000E+00  0.00000000E+00
  0.00000000E+00  0.00000000E+00  0.00000000E+00
  0.00000000E+00  0.00000000E+00  0.00000000E+00
  0.00000000E+00  0.00000000E+00  0.00000000E+00
  0.00000000E+00  0.00000000E+00  0.00000000E+00
  0.00000000E+00  0.00000000E+00  0.00000000E+00
  0.00000000E+00  0.00000000E+00  0.00000000E+00
  0.00000000E+00  0.00000000E+00  0.00000000E+00
  0.00000000E+00  0.00000000E+00  0.00000000E+00
  0.00000000E+00  0.00000000E+00  0.00000000E+00
  0.00000000E+00  0.00000000E+00  0.00000000E+00
  0.00000000E+00  0.00000000E+00  0.00000000E+00
  0.00000000E+00  0.00000000E+00  0.00000000E+00
  0.00000000E+00  0.00000000E+00  0.00000000E+00
  0.00000000E+00  0.00000000E+00  0.00000000E+00
  0.00000000E+00  0.00000000E+00  0.00000000E+00
  0.00000000E+00  0.00000000E+00  0.00000000E+00
  0.00000000E+00  0.00000000E+00  0.00000000E+00
  0.00000000E+00  0.00000000E+00  0.00000000E+00
  0.00000000E+00  0.00000000E+00  0.00000000E+00
  0.00000000E+00  0.00000000E+00  0.00000000E+00
  0.00000000E+00  0.00000000E+00  0.00000000E+00
  0.00000000E+00  0.00000000E+00  0.00000000E+00
  0.00000000E+00  0.00000000E+00  0.00000000E+00
  0.00000000E+00  0.00000000E+00  0.00000000E+00
  0.00000000E+00  0.00000000E+00  0.00000000E+00
  0.00000000E+00  0.00000000E+00  0.00000000E+00
  0.00000000E+00  0.00000000E+00  0.00000000E+00
  0.00000000E+00  0.00000000E+00  0.00000000E+00
  0.00000000E+00  0.00000000E+00  0.00000000E+00
  0.00000000E+00  0.00000000E+00  0.00000000E+00
  0.00000000E+00  0.00000000E+00  0.00000000E+00
  0.00000000E+00  0.00000000E+00  0.00000000E+00
  0.00000000E+00  0.00000000E+00  0.00000000E+00
  0.00000000E+00  0.00000000E+00  0.00000000E+00
  0.00000000E+00  0.00000000E+00  0.00000000E+00
  0.00000000E+00  0.00000000E+00  0.00000000E+00
  0.00000000E+00  0.00000000E+00  0.00000000E+00
  0.00000000E+00  0.00000000E+00  0.00000000E+00
  0.00000000E+00  0.00000000E+00  0.00000000E+00
  0.00000000E+00  0.00000000E+00  0.00000000E+00
  0.00000000E+00  0.00000000E+00  0.00000000E+00
  0.00000000E+00  0.00000000E+00  0.00000000E+00
  0.00000000E+00  0.00000000E+00  0.00000000E+00
  0.00000000E+00  0.00000000E+00  0.00000000E+00
  0.00000000E+00  0.00000000E+00  0.00000000E+00
  0.00000000E+00  0.00000000E+00  0.00000000E+00
  0.00000000E+00  0.00000000E+00  0.00000000E+00
  0.00000000E+00  0.00000000E+00  0.00000000E+00
  0.00000000E+00  0.00000000E+00  0.00000000E+00
  0.00000000E+00  0.00000000E+00  0.00000000E+00
  0.00000000E+00  0.00000000E+00  0.00000000E+00
  0.00000000E+00  0.00000000E+00  0.00000000E+00
  0.00000000E+00  0.00000000E+00  0.00000000E+00
  0.00000000E+00  0.00000000E+00  0.00000000E+00
  0.00000000E+00  0.00000000E+00  0.00000000E+00
  0.00000000E+00  0.00000000E+00  0.00000000E+00
  0.00000000E+00  0.00000000E+00  0.00000000E+00
  0.00000000E+00  0.00000000E+00  0.00000000E+00
  0.00000000E+00  0.00000000E+00  0.00000000E+00
  0.00000000E+00  0.00000000E+00  0.00000000E+00
  0.00000000E+00  0.00000000E+00  0.00000000E+00
  0.00000000E+00  0.00000000E+00  0.00000000E+00
  0.00000000E+00  0.00000000E+00  0.00000000E+00
  0.00000000E+00  0.00000000E+00  0.00000000E+00
  0.00000000E+00  0.00000000E+00  0.00000000E+00
  0.00000000E+00  0.00000000E+00  0.00000000E+00
  0.00000000E+00  0.00000000E+00  0.00000000E+00
  0.00000000E+00  0.00000000E+00  0.00000000E+00
  0.00000000E+00  0.00000000E+00  0.00000000E+00
  0.00000000E+00  0.00000000E+00  0.00000000E+00
  0.00000000E+00  0.00000000E+00  0.00000000E+00
  0.00000000E+00  0.00000000E+00  0.00000000E+00
  0.00000000E+00  0.00000000E+00  0.00000000E+00
  0.00000000E+00  0.00000000E+00  0.00000000E+00
  0.00000000E+00  0.00000000E+00  0.00000000E+00
  0.00000000E+00  0.00000000E+00  0.00000000E+00
  0.00000000E+00  0.00000000E+00  0.00000000E+00
  0.00000000E+00  0.00000000E+00  0.00000000E+00
  0.00000000E+00  0.00000000E+00  0.00000000E+00
  0.00000000E+00  0.00000000E+00  0.00000000E+00
  0.00000000E+00  0.00000000E+00  0.00000000E+00
  0.00000000E+00  0.00000000E+00  0.00000000E+00
  0.00000000E+00  0.00000000E+00  0.00000000E+00
  0.00000000E+00  0.00000000E+00  0.00000000E+00
  0.00000000E+00  0.00000000E+00  0.00000000E+00
  0.00000000E+00  0.00000000E+00  0.00000000E+00
  0.00000000E+00  0.00000000E+00  0.00000000E+00
  0.00000000E+00  0.00000000E+00  0.00000000E+00
  0.00000000E+00  0.00000000E+00  0.00000000E+00
  0.00000000E+00  0.00000000E+00  0.00000000E+00
  0.00000000E+00  0.00000000E+00  0.00000000E+00
  0.00000000E+00  0.00000000E+00  0.00000000E+00
  0.00000000E+00  0.00000000E+00  0.00000000E+00
  0.00000000E+00  0.00000000E+00  0.00000000E+00
  0.00000000E+00  0.00000000E+00  0.00000000E+00
  0.00000000E+00  0.00000000E+00  0.00000000E+00
  0.00000000E+00  0.00000000E+00  0.00000000E+00
  0.00000000E+00  0.00000000E+00  0.00000000E+00
  0.00000000E+00  0.00000000E+00  0.00000000E+00
  0.00000000E+00  0.00000000E+00  0.00000000E+00
  0.00000000E+00  0.00000000E+00  0.00000000E+00
  0.00000000E+00  0.00000000E+00  0.00000000E+00
  0.00000000E+00  0.00000000E+00  0.00000000E+00
  0.00000000E+00  0.00000000E+00  0.00000000E+00
  0.00000000E+00  0.00000000E+00  0.00000000E+00
  0.00000000E+00  0.00000000E+00  0.00000000E+00
  0.00000000E+00  0.00000000E+00  0.00000000E+00
  0.00000000E+00  0.00000000E+00  0.00000000E+00
  0.00000000E+00  0.00000000E+00  0.00000000E+00
  0.00000000E+00  0.00000000E+00  0.00000000E+00
  0.00000000E+00  0.00000000E+00  0.00000000E+00
  0.00000000E+00  0.00000000E+00  0.00000000E+00
  0.00000000E+00  0.00000000E+00  0.00000000E+00
  0.00000000E+00  0.00000000E+00  0.00000000E+00
  0.00000000E+00  0.00000000E+00  0.00000000E+00
  0.00000000E+00  0.00000000E+00  0.00000000E+00
  0.00000000E+00  0.00000000E+00  0.00000000E+00
  0.00000000E+00  0.00000000E+00  0.00000000E+00
  0.00000000E+00  0.00000000E+00  0.00000000E+00
  0.00000000E+00  0.00000000E+00  0.00000000E+00
  0.00000000E+00  0.00000000E+00  0.00000000E+00
  0.00000000E+00  0.00000000E+00  0.00000000E+00
  0.00000000E+00  0.00000000E+00  0.00000000E+00