Hf O                                    
   1.00000000000000     
    14.6106902099999996    0.0000000000000000    0.0000000000000000
    -6.0999520900000004   13.5497369200000009    0.0000000000000000
     0.0000000000000000    0.0000000000000000   32.4676209000000000
    80   160
Direct
  0.1048163482672936  0.1061689485441275  0.3670806074260833
  0.3732623612766240  0.1389233751093827  0.3650114702977355
  0.3737743268999832  0.4225943611414226  0.3725879111201858
  0.0744046443376247  0.3629124597009104  0.3752116716431003
  0.4129342004340663  0.2772409620964812  0.4538525553226098
  0.1984387749891386  0.3145780215858147  0.4495369052289423
  0.1809177728970791  0.0772327211011119  0.4589466093326112
  0.3999867945394468  0.0425280634644853  0.4631158645216667
  0.2330362737101676  0.4462873388532193  0.5411192918732345
  0.0165350607263918  0.4845897708013375  0.5388003781174590
  0.5009418603664166  0.2506439939052176  0.5456773192239840
  0.2175425423403761  0.2125169762467926  0.5479620080569192
  0.0529593953684132  0.1196481504941042  0.6278409169481560
  0.3338246822572067  0.1543907687013117  0.6236835999140915
  0.3211874457773232  0.4196871018924741  0.6329622278401315
  0.0356642158279271  0.3823211071712566  0.6372378818047012
  0.3604549593763657  0.2743735786827535  0.7142209702590127
  0.1596150196577746  0.3337167048718056  0.7115712614729868
  0.1291581530589543  0.0904960354757988  0.7196860608108623
  0.3608869233758171  0.0580691112968063  0.7218396440007899
  0.1048163482332017  0.6061689492821469  0.3670806074260833
  0.3732623446038666  0.6389233359942322  0.3650114702977355
  0.3737743272422019  0.9225943611414227  0.3725879111201858
  0.0744046077206007  0.8629124597009102  0.3752116716431003
  0.4129341844457391  0.7772409229813313  0.4538525553226098
  0.1984387746469199  0.8145780215858152  0.4495369052289423
  0.1809177725548675  0.5772327211011119  0.4589466093326112
  0.3999867579224227  0.5425280634644851  0.4631158645216667
  0.2330362380856935  0.9462873395912460  0.5411192918732345
  0.0165350603841731  0.9845897708013372  0.5388003781174590
  0.5009418600241979  0.7506439939052176  0.5456773192239840
  0.2175425419981645  0.7125169762467928  0.5479620080569192
  0.0529593950261944  0.6196481504941043  0.6278409169481560
  0.3338246825994254  0.6543907687013117  0.6236835999140915
  0.3211874454351116  0.9196871018924815  0.6329622278401315
  0.0356642154857155  0.8823211071712566  0.6372378818047012
  0.3604549593422738  0.7743735794207730  0.7142209702590127
  0.1596150193155630  0.8337167048718057  0.7115712614729868
  0.1291581534011730  0.5904960354757988  0.7196860608108623
  0.3608869230335984  0.5580691112968064  0.7218396440007899
  0.6048163664047000  0.1061689485441275  0.3670806074260833
  0.8732623794140301  0.1389233751093827  0.3650114702977355
  0.8737743087625840  0.4225943611414226  0.3725879111201858
  0.5744046262002188  0.3629124597009104  0.3752116716431003
  0.9129342185714725  0.2772409620964812  0.4538525553226098
  0.6984387568517325  0.3145780215858147  0.4495369052289423
  0.6809177910344854  0.0772327211011119  0.4589466093326112
  0.8999867764020405  0.0425280634644853  0.4631158645216667
  0.7330362555727613  0.4462873388532193  0.5411192918732345
  0.5165350788637980  0.4845897708013375  0.5388003781174590
  0.0009418785038230  0.2506439939052176  0.5456773192239840
  0.7175425242029695  0.2125169762467926  0.5479620080569192
  0.5529594135058125  0.1196481504941042  0.6278409169481560
  0.8338247003946130  0.1543907687013117  0.6236835999140915
  0.8211874639147292  0.4196871018924741  0.6329622278401315
  0.5356642332809030  0.3823211071712566  0.6372378818047012
  0.8604549412389592  0.2743735786827535  0.7142209702590127
  0.6596150377951808  0.3337167048718056  0.7115712614729868
  0.6291581349215482  0.0904960354757988  0.7196860608108623
  0.8608869415132161  0.0580691112968063  0.7218396440007899
  0.6048163663706082  0.6061689492821469  0.3670806074260833
  0.8732623627412656  0.6389233359942322  0.3650114702977355
  0.8737743091047956  0.9225943611414227  0.3725879111201858
  0.5744046258580001  0.8629124597009102  0.3752116716431003
  0.9129341663083329  0.7772409229813313  0.4538525553226098
  0.6984387565095209  0.8145780215858152  0.4495369052289423
  0.6809177906922738  0.5772327211011119  0.4589466093326112
  0.8999867760598289  0.5425280634644851  0.4631158645216667
  0.7330362562230998  0.9462873395912460  0.5411192918732345
  0.5165350422467739  0.9845897708013372  0.5388003781174590
  0.0009418418867990  0.7506439939052176  0.5456773192239840
  0.7175425238607579  0.7125169762467928  0.5479620080569192
  0.5529593768887884  0.6196481504941043  0.6278409169481560
  0.8338246644620192  0.6543907687013117  0.6236835999140915
  0.8211874635725105  0.9196871018924815  0.6329622278401315
  0.5356642336231217  0.8823211071712566  0.6372378818047012
  0.8604549412048673  0.7743735794207730  0.7142209702590127
  0.6596150374529692  0.8337167048718057  0.7115712614729868
  0.6291581352637668  0.5904960354757988  0.7196860608108623
  0.8608869411710045  0.5580691112968064  0.7218396440007899
  0.1288949438486482  0.0023484482641894  0.4055195577949030
  0.2171202666769797  0.3655754168221671  0.3861183836783693
  0.2422423258902176  0.1476133695266192  0.3459273718876648
  0.4156474651653294  0.2981851794195958  0.3852004440699358
  0.4483239664120059  0.0539867415886578  0.4013417443545487
  0.0299853079583562  0.2126836445390015  0.3518312443140127
  0.0187047650889408  0.4596688008165729  0.3441004417896763
  0.4407067360382661  0.1746064507018202  0.4921106331905548
  0.0377163536090616  0.0445207961669414  0.4784636998855473
  0.1535412084729730  0.1806685489472003  0.4213457166082424
  0.0591853102058264  0.3140539111629148  0.4348011568337944
  0.2394803091732875  0.4691793816439090  0.4727388595242309
  0.2650519433949779  0.2243375791009877  0.4843499474566158
  0.3566567922436953  0.3873940023879275  0.4403535575709241
  0.3328108427470413  0.1313181029826591  0.4278359404862072
  0.2581866711858506  0.3423726168372652  0.5795646223069082
  0.3560439348810686  0.2157748010626571  0.5635848618668966
  0.4760509698178205  0.3547283002086153  0.5072056726933158
  0.3780098864840473  0.4813491730590929  0.5232635452538892
  0.0572094665658034  0.1406956991477400  0.5591678785647843
  0.0828115205352773  0.3944539471989821  0.5727661560337579
  0.1768614834740706  0.0563424554425960  0.5276318489547454
  0.1512854977908002  0.3024251718392377  0.5140239261735267
  0.0804956675851488  0.0162304474207511  0.6653941662981872
  0.1748473259939692  0.3825074853072387  0.6519822327787178
  0.2929447345323868  0.0222572833310205  0.5947598601730194
  0.1962185411648968  0.1526105747722335  0.6083521092150975
  0.3774255699440186  0.3095772274540693  0.6464661162520527
  0.4010671968885635  0.0655135638451850  0.6589854293943688
  0.4943665245711638  0.2276207591713755  0.6140816960839818
  0.4689936702477484  0.4726544095080449  0.6024074217919825
  0.3905638907174506  0.1835943855756732  0.7513573421216290
  0.4917548569570057  0.0489063735835452  0.7407824643406473
  0.1049302763919002  0.1943752528214117  0.6813360266830770
  0.0170641429585771  0.3314580747764220  0.7005734760675321
  0.2040896708729061  0.4842424157716496  0.7349497224195377
  0.2153638361985204  0.2370070239324857  0.7426632250941951
  0.3182952379481138  0.3985776038489092  0.7016475827774872
  0.2857133536612462  0.1429771148003414  0.6854913604476012
  0.1288949435064295  0.5023484482641893  0.4055195577949030
  0.2171202300599556  0.8655754168221673  0.3861183836783693
  0.2422423265405632  0.6476133702646387  0.3459273718876648
  0.4156474648231178  0.7981851794195957  0.3852004440699358
  0.4483239667542175  0.5539867415886578  0.4013417443545487
  0.0299853079242643  0.7126836452770278  0.3518312443140127
  0.0187047647467292  0.9596688008165726  0.3441004417896763
  0.4407066994212420  0.6746064507018205  0.4921106331905548
  0.0377163539512732  0.5445207961669416  0.4784636998855473
  0.1535412081307614  0.6806685489472005  0.4213457166082424
  0.0591853098636148  0.8140539111629221  0.4348011568337944
  0.2394803088310688  0.9691793816439090  0.4727388595242309
  0.2650519437371966  0.7243375791009878  0.4843499474566158
  0.3566567919014837  0.8873940023879272  0.4403535575709241
  0.3328108424048297  0.6313181029826593  0.4278359404862072
  0.2581866708436319  0.8423726168372654  0.5795646223069082
  0.3560439345388499  0.7157748010626568  0.5635848618668966
  0.4760509541376132  0.8547282618314845  0.5072056726933158
  0.3780098498670161  0.9813491730590930  0.5232635452538892
  0.0572094306332025  0.6406956991477402  0.5591678785647843
  0.0828115208774960  0.8944539471989821  0.5727661560337579
  0.1768614841244091  0.5563424561806154  0.5276318489547454
  0.1512854611737761  0.8024251718392378  0.5140239261735267
  0.0804956679273604  0.5162304474207512  0.6653941662981872
  0.1748473256517505  0.8825074853072389  0.6519822327787178
  0.2929447341901681  0.5222572833310205  0.5947598601730194
  0.1962185408226781  0.6526105747722335  0.6083521092150975
  0.3774255702862373  0.8095772274540693  0.6464661162520527
  0.4010671968544716  0.5655135645832046  0.6589854293943688
  0.4943664886385700  0.7276207591713757  0.6140816960839818
  0.4689936535749910  0.9726543703928879  0.6024074217919825
  0.3905638910596693  0.6835943855756732  0.7513573421216290
  0.4917548402842483  0.5489063344683950  0.7407824643406473
  0.1049302397748761  0.6943752528214115  0.6813360266830770
  0.0170641066496799  0.8314580755144416  0.7005734760675321
  0.2040896712151177  0.9842424157716495  0.7349497224195377
  0.2153638358563088  0.7370070239324857  0.7426632250941951
  0.3182952385984523  0.8985776045869287  0.7016475827774872
  0.2857133533190275  0.6429771148003415  0.6854913604476012
  0.6288949257112421  0.0023484482641894  0.4055195577949030
  0.7171202485395733  0.3655754168221671  0.3861183836783693
  0.7422423440276236  0.1476133695266192  0.3459273718876648
  0.9156474470279230  0.2981851794195958  0.3852004440699358
  0.9483239482745996  0.0539867415886578  0.4013417443545487
  0.5299853260957624  0.2126836445390015  0.3518312443140127
  0.5187047825419165  0.4596688008165729  0.3441004417896763
  0.9407067179008599  0.1746064507018202  0.4921106331905548
  0.5377163717464677  0.0445207961669414  0.4784636998855473
  0.6535411903355667  0.1806685489472003  0.4213457166082424
  0.5591852920684275  0.3140539111629148  0.4348011568337944
  0.7394803273106868  0.4691793816439090  0.4727388595242309
  0.7650519615323839  0.2243375791009877  0.4843499474566158
  0.8566568103811015  0.3873940023879275  0.4403535575709241
  0.8328108608844474  0.1313181029826591  0.4278359404862072
  0.7581866530484443  0.3423726168372652  0.5795646223069082
  0.8560439167436622  0.2157748010626571  0.5635848618668966
  0.9760509516804213  0.3547283002086153  0.5072056726933158
  0.8780098683466407  0.4813491730590929  0.5232635452538892
  0.5572094484283900  0.1406956991477400  0.5591678785647843
  0.5828115386726835  0.3944539471989821  0.5727661560337579
  0.6768614653366715  0.0563424554425960  0.5276318489547454
  0.6512854796534012  0.3024251718392377  0.5140239261735267
  0.5804956857225479  0.0162304474207511  0.6653941662981872
  0.6748473441313754  0.3825074853072387  0.6519822327787178
  0.7929447526697859  0.0222572833310205  0.5947598601730194
  0.6962185593023036  0.1526105747722335  0.6083521092150975
  0.8774255880814248  0.3095772274540693  0.6464661162520527
  0.9010672150259695  0.0655135638451850  0.6589854293943688
  0.9943665064337646  0.2276207591713755  0.6140816960839818
  0.9689936883851551  0.4726544095080449  0.6024074217919825
  0.8905639088548569  0.1835943855756732  0.7513573421216290
  0.9917548750944124  0.0489063735835452  0.7407824643406473
  0.6049302582544938  0.1943752528214117  0.6813360266830770
  0.5170641248211710  0.3314580747764220  0.7005734760675321
  0.7040896527354999  0.4842424157716496  0.7349497224195377
  0.7153638180611143  0.2370070239324857  0.7426632250941951
  0.8182952198107145  0.3985776038489092  0.7016475827774872
  0.7857133355238396  0.1429771148003414  0.6854913604476012
  0.6288949253690305  0.5023484482641893  0.4055195577949030
  0.7171202481973618  0.8655754168221673  0.3861183836783693
  0.7422423439935317  0.6476133702646387  0.3459273718876648
  0.9156474466857114  0.7981851794195957  0.3852004440699358
  0.9483239486168183  0.5539867415886578  0.4013417443545487
  0.5299853260616706  0.7126836452770278  0.3518312443140127
  0.5187047828841352  0.9596688008165726  0.3441004417896763
  0.9407067175586483  0.6746064507018205  0.4921106331905548
  0.5377163358138739  0.5445207961669416  0.4784636998855473
  0.6535411899933551  0.6806685489472005  0.4213457166082424
  0.5591852917262088  0.8140539111629221  0.4348011568337944
  0.7394802906936627  0.9691793816439090  0.4727388595242309
  0.7650519255997901  0.7243375791009878  0.4843499474566158
  0.8566568100388899  0.8873940023879272  0.4403535575709241
  0.8328108605422359  0.6313181029826593  0.4278359404862072
  0.7581866527062328  0.8423726168372654  0.5795646223069082
  0.8560439164014435  0.7157748010626568  0.5635848618668966
  0.9760509360002069  0.8547282618314845  0.5072056726933158
  0.8780098680044220  0.9813491730590930  0.5232635452538892
  0.5572094487706016  0.6406956991477402  0.5591678785647843
  0.5828115383304648  0.8944539471989821  0.5727661560337579
  0.6768614659870099  0.5563424561806154  0.5276318489547454
  0.6512854793111825  0.8024251718392378  0.5140239261735267
  0.5804956860647666  0.5162304474207512  0.6653941662981872
  0.6748473437891567  0.8825074853072389  0.6519822327787178
  0.7929447523275743  0.5222572833310205  0.5947598601730194
  0.6962185226852795  0.6526105747722335  0.6083521092150975
  0.8774255884236364  0.8095772274540693  0.6464661162520527
  0.9010672149918777  0.5655135645832046  0.6589854293943688
  0.9943665067759762  0.7276207591713757  0.6140816960839818
  0.9689936717123977  0.9726543703928879  0.6024074217919825
  0.8905639091970685  0.6835943855756732  0.7513573421216290
  0.9917548584216479  0.5489063344683950  0.7407824643406473
  0.6049302579122822  0.6943752528214115  0.6813360266830770
  0.5170641247870863  0.8314580755144416  0.7005734760675321
  0.7040896530777115  0.9842424157716495  0.7349497224195377
  0.7153638177189027  0.7370070239324857  0.7426632250941951
  0.8182952204610530  0.8985776045869287  0.7016475827774872
  0.7857133351816280  0.6429771148003415  0.6854913604476012
  0.8438790223913516  0.0134899652294833  0.3353585148203719
  0.8438790223913516  0.5134900652294848  0.3353585148203719
  0.3438790223913517  0.5134900652294848  0.3353585148203719
  0.3438790223913517  0.0134899652294833  0.3353585148203719
 
  0.00000000E+00  0.00000000E+00  0.00000000E+00
  0.00000000E+00  0.00000000E+00  0.00000000E+00
  0.00000000E+00  0.00000000E+00  0.00000000E+00
  0.00000000E+00  0.00000000E+00  0.00000000E+00
  0.00000000E+00  0.00000000E+00  0.00000000E+00
  0.00000000E+00  0.00000000E+00  0.00000000E+00
  0.00000000E+00  0.00000000E+00  0.00000000E+00
  0.00000000E+00  0.00000000E+00  0.00000000E+00
  0.00000000E+00  0.00000000E+00  0.00000000E+00
  0.00000000E+00  0.00000000E+00  0.00000000E+00
  0.00000000E+00  0.00000000E+00  0.00000000E+00
  0.00000000E+00  0.00000000E+00  0.00000000E+00
  0.00000000E+00  0.00000000E+00  0.00000000E+00
  0.00000000E+00  0.00000000E+00  0.00000000E+00
  0.00000000E+00  0.00000000E+00  0.00000000E+00
  0.00000000E+00  0.00000000E+00  0.00000000E+00
  0.00000000E+00  0.00000000E+00  0.00000000E+00
  0.00000000E+00  0.00000000E+00  0.00000000E+00
  0.00000000E+00  0.00000000E+00  0.00000000E+00
  0.00000000E+00  0.00000000E+00  0.00000000E+00
  0.00000000E+00  0.00000000E+00  0.00000000E+00
  0.00000000E+00  0.00000000E+00  0.00000000E+00
  0.00000000E+00  0.00000000E+00  0.00000000E+00
  0.00000000E+00  0.00000000E+00  0.00000000E+00
  0.00000000E+00  0.00000000E+00  0.00000000E+00
  0.00000000E+00  0.00000000E+00  0.00000000E+00
  0.00000000E+00  0.00000000E+00  0.00000000E+00
  0.00000000E+00  0.00000000E+00  0.00000000E+00
  0.00000000E+00  0.00000000E+00  0.00000000E+00
  0.00000000E+00  0.00000000E+00  0.00000000E+00
  0.00000000E+00  0.00000000E+00  0.00000000E+00
  0.00000000E+00  0.00000000E+00  0.00000000E+00
  0.00000000E+00  0.00000000E+00  0.00000000E+00
  0.00000000E+00  0.00000000E+00  0.00000000E+00
  0.00000000E+00  0.00000000E+00  0.00000000E+00
  0.00000000E+00  0.00000000E+00  0.00000000E+00
  0.00000000E+00  0.00000000E+00  0.00000000E+00
  0.00000000E+00  0.00000000E+00  0.00000000E+00
  0.00000000E+00  0.00000000E+00  0.00000000E+00
  0.00000000E+00  0.00000000E+00  0.00000000E+00
  0.00000000E+00  0.00000000E+00  0.00000000E+00
  0.00000000E+00  0.00000000E+00  0.00000000E+00
  0.00000000E+00  0.00000000E+00  0.00000000E+00
  0.00000000E+00  0.00000000E+00  0.00000000E+00
  0.00000000E+00  0.00000000E+00  0.00000000E+00
  0.00000000E+00  0.00000000E+00  0.00000000E+00
  0.00000000E+00  0.00000000E+00  0.00000000E+00
  0.00000000E+00  0.00000000E+00  0.00000000E+00
  0.00000000E+00  0.00000000E+00  0.00000000E+00
  0.00000000E+00  0.00000000E+00  0.00000000E+00
  0.00000000E+00  0.00000000E+00  0.00000000E+00
  0.00000000E+00  0.00000000E+00  0.00000000E+00
  0.00000000E+00  0.00000000E+00  0.00000000E+00
  0.00000000E+00  0.00000000E+00  0.00000000E+00
  0.00000000E+00  0.00000000E+00  0.00000000E+00
  0.00000000E+00  0.00000000E+00  0.00000000E+00
  0.00000000E+00  0.00000000E+00  0.00000000E+00
  0.00000000E+00  0.00000000E+00  0.00000000E+00
  0.00000000E+00  0.00000000E+00  0.00000000E+00
  0.00000000E+00  0.00000000E+00  0.00000000E+00
  0.00000000E+00  0.00000000E+00  0.00000000E+00
  0.00000000E+00  0.00000000E+00  0.00000000E+00
  0.00000000E+00  0.00000000E+00  0.00000000E+00
  0.00000000E+00  0.00000000E+00  0.00000000E+00
  0.00000000E+00  0.00000000E+00  0.00000000E+00
  0.00000000E+00  0.00000000E+00  0.00000000E+00
  0.00000000E+00  0.00000000E+00  0.00000000E+00
  0.00000000E+00  0.00000000E+00  0.00000000E+00
  0.00000000E+00  0.00000000E+00  0.00000000E+00
  0.00000000E+00  0.00000000E+00  0.00000000E+00
  0.00000000E+00  0.00000000E+00  0.00000000E+00
  0.00000000E+00  0.00000000E+00  0.00000000E+00
  0.00000000E+00  0.00000000E+00  0.00000000E+00
  0.00000000E+00  0.00000000E+00  0.00000000E+00
  0.00000000E+00  0.00000000E+00  0.00000000E+00
  0.00000000E+00  0.00000000E+00  0.00000000E+00
  0.00000000E+00  0.00000000E+00  0.00000000E+00
  0.00000000E+00  0.00000000E+00  0.00000000E+00
  0.00000000E+00  0.00000000E+00  0.00000000E+00
  0.00000000E+00  0.00000000E+00  0.00000000E+00
  0.00000000E+00  0.00000000E+00  0.00000000E+00
  0.00000000E+00  0.00000000E+00  0.00000000E+00
  0.00000000E+00  0.00000000E+00  0.00000000E+00
  0.00000000E+00  0.00000000E+00  0.00000000E+00
  0.00000000E+00  0.00000000E+00  0.00000000E+00
  0.00000000E+00  0.00000000E+00  0.00000000E+00
  0.00000000E+00  0.00000000E+00  0.00000000E+00
  0.00000000E+00  0.00000000E+00  0.00000000E+00
  0.00000000E+00  0.00000000E+00  0.00000000E+00
  0.00000000E+00  0.00000000E+00  0.00000000E+00
  0.00000000E+00  0.00000000E+00  0.00000000E+00
  0.00000000E+00  0.00000000E+00  0.00000000E+00
  0.00000000E+00  0.00000000E+00  0.00000000E+00
  0.00000000E+00  0.00000000E+00  0.00000000E+00
  0.00000000E+00  0.00000000E+00  0.00000000E+00
  0.00000000E+00  0.00000000E+00  0.00000000E+00
  0.00000000E+00  0.00000000E+00  0.00000000E+00
  0.00000000E+00  0.00000000E+00  0.00000000E+00
  0.00000000E+00  0.00000000E+00  0.00000000E+00
  0.00000000E+00  0.00000000E+00  0.00000000E+00
  0.00000000E+00  0.00000000E+00  0.00000000E+00
  0.00000000E+00  0.00000000E+00  0.00000000E+00
  0.00000000E+00  0.00000000E+00  0.00000000E+00
  0.00000000E+00  0.00000000E+00  0.00000000E+00
  0.00000000E+00  0.00000000E+00  0.00000000E+00
  0.00000000E+00  0.00000000E+00  0.00000000E+00
  0.00000000E+00  0.00000000E+00  0.00000000E+00
  0.00000000E+00  0.00000000E+00  0.00000000E+00
  0.00000000E+00  0.00000000E+00  0.00000000E+00
  0.00000000E+00  0.00000000E+00  0.00000000E+00
  0.00000000E+00  0.00000000E+00  0.00000000E+00
  0.00000000E+00  0.00000000E+00  0.00000000E+00
  0.00000000E+00  0.00000000E+00  0.00000000E+00
  0.00000000E+00  0.00000000E+00  0.00000000E+00
  0.00000000E+00  0.00000000E+00  0.00000000E+00
  0.00000000E+00  0.00000000E+00  0.00000000E+00
  0.00000000E+00  0.00000000E+00  0.00000000E+00
  0.00000000E+00  0.00000000E+00  0.00000000E+00
  0.00000000E+00  0.00000000E+00  0.00000000E+00
  0.00000000E+00  0.00000000E+00  0.00000000E+00
  0.00000000E+00  0.00000000E+00  0.00000000E+00
  0.00000000E+00  0.00000000E+00  0.00000000E+00
  0.00000000E+00  0.00000000E+00  0.00000000E+00
  0.00000000E+00  0.00000000E+00  0.00000000E+00
  0.00000000E+00  0.00000000E+00  0.00000000E+00
  0.00000000E+00  0.00000000E+00  0.00000000E+00
  0.00000000E+00  0.00000000E+00  0.00000000E+00
  0.00000000E+00  0.00000000E+00  0.00000000E+00
  0.00000000E+00  0.00000000E+00  0.00000000E+00
  0.00000000E+00  0.00000000E+00  0.00000000E+00
  0.00000000E+00  0.00000000E+00  0.00000000E+00
  0.00000000E+00  0.00000000E+00  0.00000000E+00
  0.00000000E+00  0.00000000E+00  0.00000000E+00
  0.00000000E+00  0.00000000E+00  0.00000000E+00
  0.00000000E+00  0.00000000E+00  0.00000000E+00
  0.00000000E+00  0.00000000E+00  0.00000000E+00
  0.00000000E+00  0.00000000E+00  0.00000000E+00
  0.00000000E+00  0.00000000E+00  0.00000000E+00
  0.00000000E+00  0.00000000E+00  0.00000000E+00
  0.00000000E+00  0.00000000E+00  0.00000000E+00
  0.00000000E+00  0.00000000E+00  0.00000000E+00
  0.00000000E+00  0.00000000E+00  0.00000000E+00
  0.00000000E+00  0.00000000E+00  0.00000000E+00
  0.00000000E+00  0.00000000E+00  0.00000000E+00
  0.00000000E+00  0.00000000E+00  0.00000000E+00
  0.00000000E+00  0.00000000E+00  0.00000000E+00
  0.00000000E+00  0.00000000E+00  0.00000000E+00
  0.00000000E+00  0.00000000E+00  0.00000000E+00
  0.00000000E+00  0.00000000E+00  0.00000000E+00
  0.00000000E+00  0.00000000E+00  0.00000000E+00
  0.00000000E+00  0.00000000E+00  0.00000000E+00
  0.00000000E+00  0.00000000E+00  0.00000000E+00
  0.00000000E+00  0.00000000E+00  0.00000000E+00
  0.00000000E+00  0.00000000E+00  0.00000000E+00
  0.00000000E+00  0.00000000E+00  0.00000000E+00
  0.00000000E+00  0.00000000E+00  0.00000000E+00
  0.00000000E+00  0.00000000E+00  0.00000000E+00
  0.00000000E+00  0.00000000E+00  0.00000000E+00
  0.00000000E+00  0.00000000E+00  0.00000000E+00
  0.00000000E+00  0.00000000E+00  0.00000000E+00
  0.00000000E+00  0.00000000E+00  0.00000000E+00
  0.00000000E+00  0.00000000E+00  0.00000000E+00
  0.00000000E+00  0.00000000E+00  0.00000000E+00
  0.00000000E+00  0.00000000E+00  0.00000000E+00
  0.00000000E+00  0.00000000E+00  0.00000000E+00
  0.00000000E+00  0.00000000E+00  0.00000000E+00
  0.00000000E+00  0.00000000E+00  0.00000000E+00
  0.00000000E+00  0.00000000E+00  0.00000000E+00
  0.00000000E+00  0.00000000E+00  0.00000000E+00
  0.00000000E+00  0.00000000E+00  0.00000000E+00
  0.00000000E+00  0.00000000E+00  0.00000000E+00
  0.00000000E+00  0.00000000E+00  0.00000000E+00
  0.00000000E+00  0.00000000E+00  0.00000000E+00
  0.00000000E+00  0.00000000E+00  0.00000000E+00
  0.00000000E+00  0.00000000E+00  0.00000000E+00
  0.00000000E+00  0.00000000E+00  0.00000000E+00
  0.00000000E+00  0.00000000E+00  0.00000000E+00
  0.00000000E+00  0.00000000E+00  0.00000000E+00
  0.00000000E+00  0.00000000E+00  0.00000000E+00
  0.00000000E+00  0.00000000E+00  0.00000000E+00
  0.00000000E+00  0.00000000E+00  0.00000000E+00
  0.00000000E+00  0.00000000E+00  0.00000000E+00
  0.00000000E+00  0.00000000E+00  0.00000000E+00
  0.00000000E+00  0.00000000E+00  0.00000000E+00
  0.00000000E+00  0.00000000E+00  0.00000000E+00
  0.00000000E+00  0.00000000E+00  0.00000000E+00
  0.00000000E+00  0.00000000E+00  0.00000000E+00
  0.00000000E+00  0.00000000E+00  0.00000000E+00
  0.00000000E+00  0.00000000E+00  0.00000000E+00
  0.00000000E+00  0.00000000E+00  0.00000000E+00
  0.00000000E+00  0.00000000E+00  0.00000000E+00
  0.00000000E+00  0.00000000E+00  0.00000000E+00
  0.00000000E+00  0.00000000E+00  0.00000000E+00
  0.00000000E+00  0.00000000E+00  0.00000000E+00
  0.00000000E+00  0.00000000E+00  0.00000000E+00
  0.00000000E+00  0.00000000E+00  0.00000000E+00
  0.00000000E+00  0.00000000E+00  0.00000000E+00
  0.00000000E+00  0.00000000E+00  0.00000000E+00
  0.00000000E+00  0.00000000E+00  0.00000000E+00
  0.00000000E+00  0.00000000E+00  0.00000000E+00
  0.00000000E+00  0.00000000E+00  0.00000000E+00
  0.00000000E+00  0.00000000E+00  0.00000000E+00
  0.00000000E+00  0.00000000E+00  0.00000000E+00
  0.00000000E+00  0.00000000E+00  0.00000000E+00
  0.00000000E+00  0.00000000E+00  0.00000000E+00
  0.00000000E+00  0.00000000E+00  0.00000000E+00
  0.00000000E+00  0.00000000E+00  0.00000000E+00
  0.00000000E+00  0.00000000E+00  0.00000000E+00
  0.00000000E+00  0.00000000E+00  0.00000000E+00
  0.00000000E+00  0.00000000E+00  0.00000000E+00
  0.00000000E+00  0.00000000E+00  0.00000000E+00
  0.00000000E+00  0.00000000E+00  0.00000000E+00
  0.00000000E+00  0.00000000E+00  0.00000000E+00
  0.00000000E+00  0.00000000E+00  0.00000000E+00
  0.00000000E+00  0.00000000E+00  0.00000000E+00
  0.00000000E+00  0.00000000E+00  0.00000000E+00
  0.00000000E+00  0.00000000E+00  0.00000000E+00
  0.00000000E+00  0.00000000E+00  0.00000000E+00
  0.00000000E+00  0.00000000E+00  0.00000000E+00
  0.00000000E+00  0.00000000E+00  0.00000000E+00
  0.00000000E+00  0.00000000E+00  0.00000000E+00
  0.00000000E+00  0.00000000E+00  0.00000000E+00
  0.00000000E+00  0.00000000E+00  0.00000000E+00
  0.00000000E+00  0.00000000E+00  0.00000000E+00
  0.00000000E+00  0.00000000E+00  0.00000000E+00
  0.00000000E+00  0.00000000E+00  0.00000000E+00
  0.00000000E+00  0.00000000E+00  0.00000000E+00
  0.00000000E+00  0.00000000E+00  0.00000000E+00
  0.00000000E+00  0.00000000E+00  0.00000000E+00
  0.00000000E+00  0.00000000E+00  0.00000000E+00
  0.00000000E+00  0.00000000E+00  0.00000000E+00
  0.00000000E+00  0.00000000E+00  0.00000000E+00
  0.00000000E+00  0.00000000E+00  0.00000000E+00
  0.00000000E+00  0.00000000E+00  0.00000000E+00
  0.00000000E+00  0.00000000E+00  0.00000000E+00
  0.00000000E+00  0.00000000E+00  0.00000000E+00
  0.00000000E+00  0.00000000E+00  0.00000000E+00
  0.00000000E+00  0.00000000E+00  0.00000000E+00
  0.00000000E+00  0.00000000E+00  0.00000000E+00
  0.00000000E+00  0.00000000E+00  0.00000000E+00
