Zr  O  F  H                             
   1.00000000000000     
    14.6087084399999991    0.0000000000000000    0.0000000000000000
    -6.0995943700000002   13.5475736500000004    0.0000000000000000
     0.0000000000000000    0.0000000000000000   32.4658957799999968
   Zr   O    F    H 
    80   160     2     2
Selective dynamics
Direct
  0.1072999602879108  0.1107509020259130  0.3626799193464265   F   F   F
  0.3752027684508334  0.1411823791782822  0.3611695660103535   F   F   F
  0.3729099757713499  0.4229177172991427  0.3686418726315495   F   F   F
  0.0769991309152616  0.3675992767162413  0.3710084865553043   F   F   F
  0.4150241426110028  0.2799622327943538  0.4516720934905933   F   F   F
  0.1984057059501083  0.3151122314806543  0.4480415241448767   F   F   F
  0.1804103960495240  0.0775491807715696  0.4568444542699766   F   F   F
  0.4012433377734936  0.0448202538467086  0.4606724581803618   F   F   F
  0.2344424391150781  0.4480134719179034  0.5408472105925028   F   F   F
  0.0161400524639745  0.4843520754729411  0.5390958181964578   F   F   F
  0.4998527713696888  0.2495595232287187  0.5457642774149249   F   F   F
  0.2182112126040039  0.2133152672692802  0.5475478657807713   F   F   F
  0.0541277657434084  0.1199212344023828  0.6293000607419447   T   T   T
  0.3339216570809611  0.1532607947691448  0.6258950392781865   T   T   T
  0.3192337898336145  0.4170094055726248  0.6346369973195407   T   T   T
  0.0361728226555374  0.3827461597129299  0.6383362544899625   T   T   T
  0.3622254642218417  0.2760994063375517  0.7179131226162200   T   T   T
  0.1550013041686515  0.3259800692342414  0.7149176867641510   T   T   T
  0.1283595466630604  0.0854171063011546  0.7238227380242821   T   T   T
  0.3605153700226889  0.0557427880508787  0.7249955998894075   T   T   T
  0.1072999600997520  0.6107509023949831  0.3626799193464265   F   F   F
  0.3752027682626675  0.6411823795473524  0.3611695660103535   F   F   F
  0.3729099755831840  0.9229177176682128  0.3686418726315495   F   F   F
  0.0769991314116254  0.8675992770853114  0.3710084865553043   F   F   F
  0.4150241424228369  0.7799622331634239  0.4516720934905933   F   F   F
  0.1984057057619495  0.8151122318497244  0.4480415241448767   F   F   F
  0.1804103962376828  0.5775491804024995  0.4568444542699766   F   F   F
  0.4012433379616525  0.5448202534776385  0.4606724581803618   F   F   F
  0.2344424386187143  0.9480134715488333  0.5408472105925028   F   F   F
  0.0161400522758157  0.9843520758420112  0.5390958181964578   F   F   F
  0.4998527715578547  0.7495595228596557  0.5457642774149249   F   F   F
  0.2182112127921698  0.7133152669002101  0.5475478657807713   F   F   F
  0.0538512092429702  0.6204071051514009  0.6296812452105491   T   T   T
  0.3332761371988022  0.6527164155277914  0.6255319436350688   T   T   T
  0.3198493225097485  0.9176904632963735  0.6347031542117091   T   T   T
  0.0370901435104620  0.8826822981061276  0.6385295316151776   T   T   T
  0.3624732849512889  0.7758771248173046  0.7179454112274335   T   T   T
  0.1579919041035674  0.8307297895487499  0.7156551812345117   T   T   T
  0.1254927124510834  0.5875965864393600  0.7239224762751311   T   T   T
  0.3479063168677197  0.5550544656397247  0.7236888173405908   T   T   T
  0.6072999602879108  0.1107509020259130  0.3626799193464265   F   F   F
  0.8752027684508334  0.1411823791782822  0.3611695660103535   F   F   F
  0.8729099757713499  0.4229177172991427  0.3686418726315495   F   F   F
  0.5769991309152616  0.3675992767162413  0.3710084865553043   F   F   F
  0.9150241426110028  0.2799622327943538  0.4516720934905933   F   F   F
  0.6984057059501083  0.3151122314806543  0.4480415241448767   F   F   F
  0.6804103960495240  0.0775491807715696  0.4568444542699766   F   F   F
  0.9012433377734936  0.0448202538467086  0.4606724581803618   F   F   F
  0.7344424391150781  0.4480134719179034  0.5408472105925028   F   F   F
  0.5161400524639745  0.4843520754729411  0.5390958181964578   F   F   F
  0.9998527713696888  0.2495595232287187  0.5457642774149249   F   F   F
  0.7182112126040039  0.2133152672692802  0.5475478657807713   F   F   F
  0.5544676420686021  0.1201055912701773  0.6296099892463932   T   T   T
  0.8337884002785649  0.1532604058072758  0.6257397736727117   T   T   T
  0.8195290911459125  0.4173177186758632  0.6347500109657072   T   T   T
  0.5371025093347415  0.3842678594208651  0.6394910354628713   T   T   T
  0.8622963979096451  0.2740839786852201  0.7175278320258534   T   T   T
  0.6597547189583446  0.3299655951053307  0.7153499051763794   T   T   T
  0.6283503157659506  0.0868087464958080  0.7235828256310965   T   T   T
  0.8611334387587712  0.0567717632294841  0.7250496983391194   T   T   T
  0.6072999600997520  0.6107509023949831  0.3626799193464265   F   F   F
  0.8752027682626675  0.6411823795473524  0.3611695660103535   F   F   F
  0.8729099755831840  0.9229177176682128  0.3686418726315495   F   F   F
  0.5769991314116254  0.8675992770853114  0.3710084865553043   F   F   F
  0.9150241424228369  0.7799622331634239  0.4516720934905933   F   F   F
  0.6984057057619495  0.8151122318497244  0.4480415241448767   F   F   F
  0.6804103962376828  0.5775491804024995  0.4568444542699766   F   F   F
  0.9012433379616525  0.5448202534776385  0.4606724581803618   F   F   F
  0.7344424386187143  0.9480134715488333  0.5408472105925028   F   F   F
  0.5161400522758157  0.9843520758420112  0.5390958181964578   F   F   F
  0.9998527715578547  0.7495595228596557  0.5457642774149249   F   F   F
  0.7182112127921698  0.7133152669002101  0.5475478657807713   F   F   F
  0.5549564458333662  0.6198250699733110  0.6328482664452221   T   T   T
  0.8324483286916767  0.6527789192510517  0.6261590316108406   T   T   T
  0.8201119674081657  0.9183091958415813  0.6347289806604595   T   T   T
  0.5358370557349714  0.8818159806991986  0.6385460242608135   T   T   T
  0.8641977557342485  0.7774901325987154  0.7174240087745095   T   T   T
  0.6592028280872578  0.8318267719546745  0.7152121938216278   T   T   T
  0.6399859907002339  0.5905529171246811  0.7282697608089074   T   T   T
  0.8630777921031869  0.5560526932254679  0.7251859125733333   T   T   T
  0.1332582265626669  0.0059689038117909  0.4018946551303202   F   F   F
  0.2181988781032373  0.3661521172833773  0.3825003874881503   F   F   F
  0.3442342672352794  0.0153678283195759  0.3310424656331463   F   F   F
  0.2448769086493598  0.1532202571934320  0.3416956173386723   F   F   F
  0.4183450511797773  0.3018822266376802  0.3812778210674068   F   F   F
  0.4479630891185806  0.0541491356276893  0.3979564111383311   F   F   F
  0.0314071462063694  0.2142568009586014  0.3475222399669775   F   F   F
  0.0226551989466728  0.4641564239069496  0.3395728532397797   F   F   F
  0.4439043559933253  0.1765955828555335  0.4903745631379621   F   F   F
  0.0376710753307208  0.0432766736795003  0.4766665390927969   F   F   F
  0.1526998132164152  0.1823197248313164  0.4187291303502150   F   F   F
  0.0609778626800761  0.3186209200641628  0.4320697212870783   F   F   F
  0.2410437716299114  0.4716434307777320  0.4708552709769123   F   F   F
  0.2643985499594521  0.2237504121632909  0.4830709797220933   F   F   F
  0.3563347177442537  0.3876955036889598  0.4380853724283114   F   F   F
  0.3354974923431868  0.1352524710577967  0.4250661838045247   F   F   F
  0.2604301099607511  0.3429483656654639  0.5797765521564813   F   F   F
  0.3553411594725162  0.2126448018977953  0.5638597850510294   F   F   F
  0.4741103145572438  0.3547873036290881  0.5067627900516811   F   F   F
  0.3790288096649093  0.4850060784869754  0.5227594134782905   F   F   F
  0.0583022340726487  0.1417510576146626  0.5591551179124750   F   F   F
  0.0814467987013927  0.3927345269682263  0.5733121160164103   F   F   F
  0.1760565422169620  0.0558733964144196  0.5274894555519936   F   F   F
  0.1528366743269487  0.3047856851473938  0.5132875909207399   F   F   F
  0.0845873934406981  0.0163447043895225  0.6671088036641857   T   T   T
  0.1730862243222850  0.3781398409124235  0.6542034807497338   T   T   T
  0.2900477267119611  0.0210314266995086  0.5963460796219570   T   T   T
  0.1976505094443586  0.1558737340744096  0.6099957306649487   T   T   T
  0.3785133073498679  0.3105125869952175  0.6489787598861302   T   T   T
  0.3992510763145207  0.0619967845476187  0.6614406252832684   T   T   T
  0.4931120477568713  0.2256293828325330  0.6158023435646883   T   T   T
  0.4715690530888940  0.4752101974452917  0.6045587339528377   T   T   T
  0.3891465175689197  0.1819421746470291  0.7566288313187779   T   T   T
  0.4901929548684983  0.0448504895004445  0.7441929299025282   T   T   T
  0.1007981744643941  0.1906989705329368  0.6845808247780230   T   T   T
  0.0162515736270040  0.3308462533067120  0.7031807514547992   T   T   T
  0.1985052877709985  0.4833611172961765  0.7385157089483174   T   T   T
  0.2114862365028887  0.2319710072145323  0.7467946769643856   T   T   T
  0.3134094816839701  0.3946063888320734  0.7053038854175792   T   T   T
  0.2891237302348006  0.1445341741018545  0.6889617560612906   T   T   T
  0.1332582267508329  0.5059689034427208  0.4018946551303202   F   F   F
  0.2181988782913962  0.8661521169143072  0.3825003874881503   F   F   F
  0.3442342677316361  0.5153678286886461  0.3310424656331463   F   F   F
  0.2448769088375258  0.6532202568243619  0.3416956173386723   F   F   F
  0.4183450516761411  0.8018822270067503  0.3812778210674068   F   F   F
  0.4479630886222168  0.5541491352586192  0.3979564111383311   F   F   F
  0.0314071467027262  0.7142568013276644  0.3475222399669775   F   F   F
  0.0226551984503160  0.9641564235378794  0.3395728532397797   F   F   F
  0.4439043561814913  0.6765955824864633  0.4903745631379621   F   F   F
  0.0376710748343640  0.5432766733104302  0.4766665390927969   F   F   F
  0.1526998137127720  0.6823197252003865  0.4187291303502150   F   F   F
  0.0609778628682420  0.8186209196950927  0.4320697212870783   F   F   F
  0.2410437718180773  0.9716434304086619  0.4708552709769123   F   F   F
  0.2643985494630883  0.7237504117942208  0.4830709797220933   F   F   F
  0.3563347182406105  0.8876955040580299  0.4380853724283114   F   F   F
  0.3354974925313456  0.6352524706887266  0.4250661838045247   F   F   F
  0.2604301101489170  0.8429483652963938  0.5797765521564813   F   F   F
  0.3553411589761595  0.7126448015287252  0.5638597850510294   F   F   F
  0.4741103143690779  0.8547873039981582  0.5067627900516811   F   F   F
  0.3790288101612731  0.9850060788560455  0.5227594134782905   F   F   F
  0.0583022335762848  0.6417510572455924  0.5591551179124750   F   F   F
  0.0814467982050360  0.8927345265991562  0.5733121160164103   F   F   F
  0.1760565417206053  0.5558733960453495  0.5274894555519936   F   F   F
  0.1528366745151146  0.8047856847783237  0.5132875909207399   F   F   F
  0.0811193137142308  0.5155973804498807  0.6678389810074732   T   T   T
  0.1739841718373675  0.8771905445223248  0.6542995837176241   T   T   T
  0.2896668060608101  0.5207533138667588  0.5961029576258329   T   T   T
  0.1967995423319999  0.6553673737031909  0.6100867392531381   T   T   T
  0.3779992471189929  0.8098451940764119  0.6486873551059612   T   T   T
  0.3957909070864171  0.5612531072084768  0.6616206876688407   T   T   T
  0.4930417798708602  0.7249899421525053  0.6164176592708648   T   T   T
  0.4698279425458344  0.9735292753827494  0.6034522838999691   T   T   T
  0.3872678691321338  0.6797620979707641  0.7551363178829725   T   T   T
  0.4769318305582798  0.5349678456284782  0.7466874738345658   T   T   T
  0.0973189993772502  0.6906672556364229  0.6853883416956186   T   T   T
  0.0190709820349493  0.8354933834723457  0.7038803353434488   T   T   T
  0.2040638037235446  0.9836027049353818  0.7386089978338821   T   T   T
  0.2117354447689224  0.7341147813147133  0.7467702872156660   T   T   T
  0.3170622913396603  0.8965694576424972  0.7055283055722232   T   T   T
  0.2847519994640612  0.6441175626244281  0.6882947879164102   T   T   T
  0.6332582265626669  0.0059689038117909  0.4018946551303202   F   F   F
  0.7181988787877600  0.3661521172833773  0.3825003874881503   F   F   F
  0.8442342672352794  0.0153678283195759  0.3310424656331463   F   F   F
  0.7448769086493598  0.1532202571934320  0.3416956173386723   F   F   F
  0.9183450511797773  0.3018822266376802  0.3812778210674068   F   F   F
  0.9479630891185806  0.0541491356276893  0.3979564111383311   F   F   F
  0.5314071462063694  0.2142568009586014  0.3475222399669775   F   F   F
  0.5226551989466728  0.4641564239069496  0.3395728532397797   F   F   F
  0.9439043559933253  0.1765955828555335  0.4903745631379621   F   F   F
  0.5376710753307208  0.0432766736795003  0.4766665390927969   F   F   F
  0.6526998132164152  0.1823197248313164  0.4187291303502150   F   F   F
  0.5609778626800761  0.3186209200641628  0.4320697212870783   F   F   F
  0.7410437716299114  0.4716434307777320  0.4708552709769123   F   F   F
  0.7643985499594521  0.2237504121632909  0.4830709797220933   F   F   F
  0.8563347177442537  0.3876955036889598  0.4380853724283114   F   F   F
  0.8354974923431868  0.1352524710577967  0.4250661838045247   F   F   F
  0.7604301099607511  0.3429483656654639  0.5797765521564813   F   F   F
  0.8553411594725162  0.2126448018977953  0.5638597850510294   F   F   F
  0.9741103145572438  0.3547873036290881  0.5067627900516811   F   F   F
  0.8790288096649093  0.4850060784869754  0.5227594134782905   F   F   F
  0.5583022340726487  0.1417510576146626  0.5591551179124750   F   F   F
  0.5814467987013927  0.3927345269682263  0.5733121160164103   F   F   F
  0.6760565422169620  0.0558733964144196  0.5274894555519936   F   F   F
  0.6528366743269487  0.3047856851473938  0.5132875909207399   F   F   F
  0.5830496424933875  0.0148472532089572  0.6674945379946672   T   T   T
  0.6736391856683471  0.3783762896214048  0.6541281850424358   T   T   T
  0.7896834937250318  0.0206074514631912  0.5963552391907948   T   T   T
  0.6970293807192852  0.1545057227898842  0.6097419223316153   T   T   T
  0.8785677602438680  0.3091087709445012  0.6475241963263191   T   T   T
  0.9004965352573531  0.0638012277512065  0.6609695433644034   T   T   T
  0.9941029470208809  0.2261581720138664  0.6153517915729264   T   T   T
  0.9700892175219266  0.4745946800167719  0.6034692651626896   T   T   T
  0.8934219024520350  0.1827212671771160  0.7550150735750857   T   T   T
  0.9905481613672491  0.0425383562870865  0.7443701882838298   T   T   T
  0.6025675427238720  0.1908958625826729  0.6843586443580175   T   T   T
  0.5163230789342840  0.3285769388217907  0.7045147213111732   T   T   T
  0.7098162558691131  0.4800550873902973  0.7363320097366322   T   T   T
  0.7135977695345409  0.2332625942128053  0.7466169558566634   T   T   T
  0.8188859545055114  0.3941721602517656  0.7038350319159995   T   T   T
  0.7870145065922077  0.1430101694055605  0.6884098130758335   T   T   T
  0.6332582267508329  0.5059689034427208  0.4018946551303202   F   F   F
  0.7181988782913962  0.8661521169143072  0.3825003874881503   F   F   F
  0.8442342677316361  0.5153678286886461  0.3310424656331463   F   F   F
  0.7448769088375258  0.6532202568243619  0.3416956173386723   F   F   F
  0.9183450516761411  0.8018822270067503  0.3812778210674068   F   F   F
  0.9479630893067394  0.5541491352586192  0.3979564111383311   F   F   F
  0.5314071467027262  0.7142568013276644  0.3475222399669775   F   F   F
  0.5226551984503160  0.9641564235378794  0.3395728532397797   F   F   F
  0.9439043561814913  0.6765955824864633  0.4903745631379621   F   F   F
  0.5376710748343640  0.5432766733104302  0.4766665390927969   F   F   F
  0.6526998137127720  0.6823197252003865  0.4187291303502150   F   F   F
  0.5609778628682420  0.8186209196950927  0.4320697212870783   F   F   F
  0.7410437718180773  0.9716434304086619  0.4708552709769123   F   F   F
  0.7643985494630883  0.7237504117942208  0.4830709797220933   F   F   F
  0.8563347182406105  0.8876955040580299  0.4380853724283114   F   F   F
  0.8354974925313456  0.6352524706887266  0.4250661838045247   F   F   F
  0.7604301101489170  0.8429483652963938  0.5797765521564813   F   F   F
  0.8553411589761595  0.7126448015287252  0.5638597850510294   F   F   F
  0.9741103150536077  0.8547873039981582  0.5067627900516811   F   F   F
  0.8790288101612731  0.9850060788560455  0.5227594134782905   F   F   F
  0.5583022335762848  0.6417510572455924  0.5591551179124750   F   F   F
  0.5814467982050360  0.8927345265991562  0.5733121160164103   F   F   F
  0.6760565417206053  0.5558733960453495  0.5274894555519936   F   F   F
  0.6528366745151146  0.8047856847783237  0.5132875909207399   F   F   F
  0.5789640392591009  0.5133426658151876  0.6710760638883251   T   T   T
  0.6721860271982757  0.8748864202547498  0.6539169695930808   T   T   T
  0.7900716927549130  0.5213060053285554  0.5962608839154555   T   T   T
  0.6961416359836208  0.6550277007825921  0.6109848849913710   T   T   T
  0.8791710289514757  0.8096437262550964  0.6485580157775410   T   T   T
  0.8982420118844344  0.5631151898845544  0.6614478989100508   T   T   T
  0.9931444732978931  0.7258574688189304  0.6156663776984964   T   T   T
  0.9701094880575525  0.9737826472834302  0.6034756358766828   T   T   T
  0.8949822906147064  0.6838265504156418  0.7537799277371248   T   T   T
  0.9891429704632166  0.5405339450892797  0.7460848245257785   T   T   T
  0.5953700376094120  0.6875981028928261  0.6888776637409975   T   T   T
  0.5161851497402442  0.8324685367813036  0.7045130782405489   T   T   T
  0.7046742347268846  0.9839575097483770  0.7387707401399473   T   T   T
  0.7212367437791103  0.7429938211918441  0.7459677536934399   T   T   T
  0.8181475853761202  0.8990141776317422  0.7034130024657136   T   T   T
  0.7832541824959456  0.6439525278083864  0.6892712228361901   T   T   T
  0.4057264026252578  0.1512473723560142  0.8327806540541777   T   T   T
  0.6297874678934805  0.5693114385982833  0.7885869408196132   T   T   T
  0.4015347005508014  0.1684022800436540  0.8039769044763846   T   T   T
  0.4911361598335877  0.5398902056281600  0.7763528394156668   T   T   T
 
  0.00000000E+00  0.00000000E+00  0.00000000E+00
  0.00000000E+00  0.00000000E+00  0.00000000E+00
  0.00000000E+00  0.00000000E+00  0.00000000E+00
  0.00000000E+00  0.00000000E+00  0.00000000E+00
  0.00000000E+00  0.00000000E+00  0.00000000E+00
  0.00000000E+00  0.00000000E+00  0.00000000E+00
  0.00000000E+00  0.00000000E+00  0.00000000E+00
  0.00000000E+00  0.00000000E+00  0.00000000E+00
  0.00000000E+00  0.00000000E+00  0.00000000E+00
  0.00000000E+00  0.00000000E+00  0.00000000E+00
  0.00000000E+00  0.00000000E+00  0.00000000E+00
  0.00000000E+00  0.00000000E+00  0.00000000E+00
  0.00000000E+00  0.00000000E+00  0.00000000E+00
  0.00000000E+00  0.00000000E+00  0.00000000E+00
  0.00000000E+00  0.00000000E+00  0.00000000E+00
  0.00000000E+00  0.00000000E+00  0.00000000E+00
  0.00000000E+00  0.00000000E+00  0.00000000E+00
  0.00000000E+00  0.00000000E+00  0.00000000E+00
  0.00000000E+00  0.00000000E+00  0.00000000E+00
  0.00000000E+00  0.00000000E+00  0.00000000E+00
  0.00000000E+00  0.00000000E+00  0.00000000E+00
  0.00000000E+00  0.00000000E+00  0.00000000E+00
  0.00000000E+00  0.00000000E+00  0.00000000E+00
  0.00000000E+00  0.00000000E+00  0.00000000E+00
  0.00000000E+00  0.00000000E+00  0.00000000E+00
  0.00000000E+00  0.00000000E+00  0.00000000E+00
  0.00000000E+00  0.00000000E+00  0.00000000E+00
  0.00000000E+00  0.00000000E+00  0.00000000E+00
  0.00000000E+00  0.00000000E+00  0.00000000E+00
  0.00000000E+00  0.00000000E+00  0.00000000E+00
  0.00000000E+00  0.00000000E+00  0.00000000E+00
  0.00000000E+00  0.00000000E+00  0.00000000E+00
  0.00000000E+00  0.00000000E+00  0.00000000E+00
  0.00000000E+00  0.00000000E+00  0.00000000E+00
  0.00000000E+00  0.00000000E+00  0.00000000E+00
  0.00000000E+00  0.00000000E+00  0.00000000E+00
  0.00000000E+00  0.00000000E+00  0.00000000E+00
  0.00000000E+00  0.00000000E+00  0.00000000E+00
  0.00000000E+00  0.00000000E+00  0.00000000E+00
  0.00000000E+00  0.00000000E+00  0.00000000E+00
  0.00000000E+00  0.00000000E+00  0.00000000E+00
  0.00000000E+00  0.00000000E+00  0.00000000E+00
  0.00000000E+00  0.00000000E+00  0.00000000E+00
  0.00000000E+00  0.00000000E+00  0.00000000E+00
  0.00000000E+00  0.00000000E+00  0.00000000E+00
  0.00000000E+00  0.00000000E+00  0.00000000E+00
  0.00000000E+00  0.00000000E+00  0.00000000E+00
  0.00000000E+00  0.00000000E+00  0.00000000E+00
  0.00000000E+00  0.00000000E+00  0.00000000E+00
  0.00000000E+00  0.00000000E+00  0.00000000E+00
  0.00000000E+00  0.00000000E+00  0.00000000E+00
  0.00000000E+00  0.00000000E+00  0.00000000E+00
  0.00000000E+00  0.00000000E+00  0.00000000E+00
  0.00000000E+00  0.00000000E+00  0.00000000E+00
  0.00000000E+00  0.00000000E+00  0.00000000E+00
  0.00000000E+00  0.00000000E+00  0.00000000E+00
  0.00000000E+00  0.00000000E+00  0.00000000E+00
  0.00000000E+00  0.00000000E+00  0.00000000E+00
  0.00000000E+00  0.00000000E+00  0.00000000E+00
  0.00000000E+00  0.00000000E+00  0.00000000E+00
  0.00000000E+00  0.00000000E+00  0.00000000E+00
  0.00000000E+00  0.00000000E+00  0.00000000E+00
  0.00000000E+00  0.00000000E+00  0.00000000E+00
  0.00000000E+00  0.00000000E+00  0.00000000E+00
  0.00000000E+00  0.00000000E+00  0.00000000E+00
  0.00000000E+00  0.00000000E+00  0.00000000E+00
  0.00000000E+00  0.00000000E+00  0.00000000E+00
  0.00000000E+00  0.00000000E+00  0.00000000E+00
  0.00000000E+00  0.00000000E+00  0.00000000E+00
  0.00000000E+00  0.00000000E+00  0.00000000E+00
  0.00000000E+00  0.00000000E+00  0.00000000E+00
  0.00000000E+00  0.00000000E+00  0.00000000E+00
  0.00000000E+00  0.00000000E+00  0.00000000E+00
  0.00000000E+00  0.00000000E+00  0.00000000E+00
  0.00000000E+00  0.00000000E+00  0.00000000E+00
  0.00000000E+00  0.00000000E+00  0.00000000E+00
  0.00000000E+00  0.00000000E+00  0.00000000E+00
  0.00000000E+00  0.00000000E+00  0.00000000E+00
  0.00000000E+00  0.00000000E+00  0.00000000E+00
  0.00000000E+00  0.00000000E+00  0.00000000E+00
  0.00000000E+00  0.00000000E+00  0.00000000E+00
  0.00000000E+00  0.00000000E+00  0.00000000E+00
  0.00000000E+00  0.00000000E+00  0.00000000E+00
  0.00000000E+00  0.00000000E+00  0.00000000E+00
  0.00000000E+00  0.00000000E+00  0.00000000E+00
  0.00000000E+00  0.00000000E+00  0.00000000E+00
  0.00000000E+00  0.00000000E+00  0.00000000E+00
  0.00000000E+00  0.00000000E+00  0.00000000E+00
  0.00000000E+00  0.00000000E+00  0.00000000E+00
  0.00000000E+00  0.00000000E+00  0.00000000E+00
  0.00000000E+00  0.00000000E+00  0.00000000E+00
  0.00000000E+00  0.00000000E+00  0.00000000E+00
  0.00000000E+00  0.00000000E+00  0.00000000E+00
  0.00000000E+00  0.00000000E+00  0.00000000E+00
  0.00000000E+00  0.00000000E+00  0.00000000E+00
  0.00000000E+00  0.00000000E+00  0.00000000E+00
  0.00000000E+00  0.00000000E+00  0.00000000E+00
  0.00000000E+00  0.00000000E+00  0.00000000E+00
  0.00000000E+00  0.00000000E+00  0.00000000E+00
  0.00000000E+00  0.00000000E+00  0.00000000E+00
  0.00000000E+00  0.00000000E+00  0.00000000E+00
  0.00000000E+00  0.00000000E+00  0.00000000E+00
  0.00000000E+00  0.00000000E+00  0.00000000E+00
  0.00000000E+00  0.00000000E+00  0.00000000E+00
  0.00000000E+00  0.00000000E+00  0.00000000E+00
  0.00000000E+00  0.00000000E+00  0.00000000E+00
  0.00000000E+00  0.00000000E+00  0.00000000E+00
  0.00000000E+00  0.00000000E+00  0.00000000E+00
  0.00000000E+00  0.00000000E+00  0.00000000E+00
  0.00000000E+00  0.00000000E+00  0.00000000E+00
  0.00000000E+00  0.00000000E+00  0.00000000E+00
  0.00000000E+00  0.00000000E+00  0.00000000E+00
  0.00000000E+00  0.00000000E+00  0.00000000E+00
  0.00000000E+00  0.00000000E+00  0.00000000E+00
  0.00000000E+00  0.00000000E+00  0.00000000E+00
  0.00000000E+00  0.00000000E+00  0.00000000E+00
  0.00000000E+00  0.00000000E+00  0.00000000E+00
  0.00000000E+00  0.00000000E+00  0.00000000E+00
  0.00000000E+00  0.00000000E+00  0.00000000E+00
  0.00000000E+00  0.00000000E+00  0.00000000E+00
  0.00000000E+00  0.00000000E+00  0.00000000E+00
  0.00000000E+00  0.00000000E+00  0.00000000E+00
  0.00000000E+00  0.00000000E+00  0.00000000E+00
  0.00000000E+00  0.00000000E+00  0.00000000E+00
  0.00000000E+00  0.00000000E+00  0.00000000E+00
  0.00000000E+00  0.00000000E+00  0.00000000E+00
  0.00000000E+00  0.00000000E+00  0.00000000E+00
  0.00000000E+00  0.00000000E+00  0.00000000E+00
  0.00000000E+00  0.00000000E+00  0.00000000E+00
  0.00000000E+00  0.00000000E+00  0.00000000E+00
  0.00000000E+00  0.00000000E+00  0.00000000E+00
  0.00000000E+00  0.00000000E+00  0.00000000E+00
  0.00000000E+00  0.00000000E+00  0.00000000E+00
  0.00000000E+00  0.00000000E+00  0.00000000E+00
  0.00000000E+00  0.00000000E+00  0.00000000E+00
  0.00000000E+00  0.00000000E+00  0.00000000E+00
  0.00000000E+00  0.00000000E+00  0.00000000E+00
  0.00000000E+00  0.00000000E+00  0.00000000E+00
  0.00000000E+00  0.00000000E+00  0.00000000E+00
  0.00000000E+00  0.00000000E+00  0.00000000E+00
  0.00000000E+00  0.00000000E+00  0.00000000E+00
  0.00000000E+00  0.00000000E+00  0.00000000E+00
  0.00000000E+00  0.00000000E+00  0.00000000E+00
  0.00000000E+00  0.00000000E+00  0.00000000E+00
  0.00000000E+00  0.00000000E+00  0.00000000E+00
  0.00000000E+00  0.00000000E+00  0.00000000E+00
  0.00000000E+00  0.00000000E+00  0.00000000E+00
  0.00000000E+00  0.00000000E+00  0.00000000E+00
  0.00000000E+00  0.00000000E+00  0.00000000E+00
  0.00000000E+00  0.00000000E+00  0.00000000E+00
  0.00000000E+00  0.00000000E+00  0.00000000E+00
  0.00000000E+00  0.00000000E+00  0.00000000E+00
  0.00000000E+00  0.00000000E+00  0.00000000E+00
  0.00000000E+00  0.00000000E+00  0.00000000E+00
  0.00000000E+00  0.00000000E+00  0.00000000E+00
  0.00000000E+00  0.00000000E+00  0.00000000E+00
  0.00000000E+00  0.00000000E+00  0.00000000E+00
  0.00000000E+00  0.00000000E+00  0.00000000E+00
  0.00000000E+00  0.00000000E+00  0.00000000E+00
  0.00000000E+00  0.00000000E+00  0.00000000E+00
  0.00000000E+00  0.00000000E+00  0.00000000E+00
  0.00000000E+00  0.00000000E+00  0.00000000E+00
  0.00000000E+00  0.00000000E+00  0.00000000E+00
  0.00000000E+00  0.00000000E+00  0.00000000E+00
  0.00000000E+00  0.00000000E+00  0.00000000E+00
  0.00000000E+00  0.00000000E+00  0.00000000E+00
  0.00000000E+00  0.00000000E+00  0.00000000E+00
  0.00000000E+00  0.00000000E+00  0.00000000E+00
  0.00000000E+00  0.00000000E+00  0.00000000E+00
  0.00000000E+00  0.00000000E+00  0.00000000E+00
  0.00000000E+00  0.00000000E+00  0.00000000E+00
  0.00000000E+00  0.00000000E+00  0.00000000E+00
  0.00000000E+00  0.00000000E+00  0.00000000E+00
  0.00000000E+00  0.00000000E+00  0.00000000E+00
  0.00000000E+00  0.00000000E+00  0.00000000E+00
  0.00000000E+00  0.00000000E+00  0.00000000E+00
  0.00000000E+00  0.00000000E+00  0.00000000E+00
  0.00000000E+00  0.00000000E+00  0.00000000E+00
  0.00000000E+00  0.00000000E+00  0.00000000E+00
  0.00000000E+00  0.00000000E+00  0.00000000E+00
  0.00000000E+00  0.00000000E+00  0.00000000E+00
  0.00000000E+00  0.00000000E+00  0.00000000E+00
  0.00000000E+00  0.00000000E+00  0.00000000E+00
  0.00000000E+00  0.00000000E+00  0.00000000E+00
  0.00000000E+00  0.00000000E+00  0.00000000E+00
  0.00000000E+00  0.00000000E+00  0.00000000E+00
  0.00000000E+00  0.00000000E+00  0.00000000E+00
  0.00000000E+00  0.00000000E+00  0.00000000E+00
  0.00000000E+00  0.00000000E+00  0.00000000E+00
  0.00000000E+00  0.00000000E+00  0.00000000E+00
  0.00000000E+00  0.00000000E+00  0.00000000E+00
  0.00000000E+00  0.00000000E+00  0.00000000E+00
  0.00000000E+00  0.00000000E+00  0.00000000E+00
  0.00000000E+00  0.00000000E+00  0.00000000E+00
  0.00000000E+00  0.00000000E+00  0.00000000E+00
  0.00000000E+00  0.00000000E+00  0.00000000E+00
  0.00000000E+00  0.00000000E+00  0.00000000E+00
  0.00000000E+00  0.00000000E+00  0.00000000E+00
  0.00000000E+00  0.00000000E+00  0.00000000E+00
  0.00000000E+00  0.00000000E+00  0.00000000E+00
  0.00000000E+00  0.00000000E+00  0.00000000E+00
  0.00000000E+00  0.00000000E+00  0.00000000E+00
  0.00000000E+00  0.00000000E+00  0.00000000E+00
  0.00000000E+00  0.00000000E+00  0.00000000E+00
  0.00000000E+00  0.00000000E+00  0.00000000E+00
  0.00000000E+00  0.00000000E+00  0.00000000E+00
  0.00000000E+00  0.00000000E+00  0.00000000E+00
  0.00000000E+00  0.00000000E+00  0.00000000E+00
  0.00000000E+00  0.00000000E+00  0.00000000E+00
  0.00000000E+00  0.00000000E+00  0.00000000E+00
  0.00000000E+00  0.00000000E+00  0.00000000E+00
  0.00000000E+00  0.00000000E+00  0.00000000E+00
  0.00000000E+00  0.00000000E+00  0.00000000E+00
  0.00000000E+00  0.00000000E+00  0.00000000E+00
  0.00000000E+00  0.00000000E+00  0.00000000E+00
  0.00000000E+00  0.00000000E+00  0.00000000E+00
  0.00000000E+00  0.00000000E+00  0.00000000E+00
  0.00000000E+00  0.00000000E+00  0.00000000E+00
  0.00000000E+00  0.00000000E+00  0.00000000E+00
  0.00000000E+00  0.00000000E+00  0.00000000E+00
  0.00000000E+00  0.00000000E+00  0.00000000E+00
  0.00000000E+00  0.00000000E+00  0.00000000E+00
  0.00000000E+00  0.00000000E+00  0.00000000E+00
  0.00000000E+00  0.00000000E+00  0.00000000E+00
  0.00000000E+00  0.00000000E+00  0.00000000E+00
  0.00000000E+00  0.00000000E+00  0.00000000E+00
  0.00000000E+00  0.00000000E+00  0.00000000E+00
  0.00000000E+00  0.00000000E+00  0.00000000E+00
  0.00000000E+00  0.00000000E+00  0.00000000E+00
  0.00000000E+00  0.00000000E+00  0.00000000E+00
  0.00000000E+00  0.00000000E+00  0.00000000E+00
  0.00000000E+00  0.00000000E+00  0.00000000E+00
  0.00000000E+00  0.00000000E+00  0.00000000E+00
  0.00000000E+00  0.00000000E+00  0.00000000E+00
  0.00000000E+00  0.00000000E+00  0.00000000E+00
  0.00000000E+00  0.00000000E+00  0.00000000E+00
  0.00000000E+00  0.00000000E+00  0.00000000E+00
  0.00000000E+00  0.00000000E+00  0.00000000E+00
  0.00000000E+00  0.00000000E+00  0.00000000E+00
  0.00000000E+00  0.00000000E+00  0.00000000E+00
  0.00000000E+00  0.00000000E+00  0.00000000E+00